&control
  calculation='scf'
  prefix = 'sto-nosoc'
  outdir = './tmp'
  pseudo_dir = '../../pw-ph-wann/pseudo'
  wf_collect = .false.
  tprnfor = .true.
  tstress = .true.
  verbosity = 'high'
/
&system
  ibrav = 0
  ntyp = 3
  ecutwfc = 85
/
&electrons
  conv_thr = 1.0d-12
  mixing_mode = 'plain'
  mixing_beta = 0.7
 /
ATOMIC_SPECIES
  Sr   87.62000  Sr-ncsr-pbe-v0.4-std.upf
  Ti   47.86700  Ti-ncsr-pbe-v0.4-std.upf
  O    15.99900   O-ncsr-pbe-v0.4-std.upf
K_POINTS (automatic)
1 1 1 0 0 0
