exclude_bands=1-20, 24-28
begin projections
Ti:dxz;dyz;dxy
#Ti:dxz;dyz;dxy
end projections
guiding_centres=true

#spinors = .true. 

num_bands = 3
num_wann = 3

write_hr = .true.

iprint = 2
dis_num_iter =  500
dis_win_min =  -100.000
dis_win_max =   100.000
dis_froz_min = -100.000
dis_froz_max  = 100.000
num_iter  =   0
mp_grid : 4 4 4 

begin unit_cell_cart
ang
3.900036  0.0  0.0
0.0  3.900036  0.0
0.0  0.0  3.900036
end unit_cell_cart

write_u_matrices = .true.
write_xyz = .true.

#restart = plot
BANDS_PLOT = TRUE
BANDS_PLOT_FORMAT = gnuplot
BANDS_NUM_POINTS = 100

BEGIN KPOINT_PATH
G 0.000 0.000 0.000  M 0.500 0.500 0.000
M 0.500 0.500 0.000  X 0.500 0.000 0.000
X 0.500 0.000 0.000  G 0.000 0.000 0.000
G 0.000 0.000 0.000  R 0.500 0.500 0.500
END KPOINT_PATH

begin atoms_frac
Sr   0.000000000000000   0.000000000000000   0.000000000000000 
Ti   0.500000000000000   0.500000000000000   0.500000000000000 
 O   0.000000000000000   0.500000000000000   0.500000000000000 
 O   0.500000000000000   0.000000000000000   0.500000000000000 
 O   0.500000000000000   0.500000000000000   0.000000000000000 
end atoms_frac

begin kpoints
  0.00000000  0.00000000  0.00000000
  0.00000000  0.00000000  0.25000000
  0.00000000  0.00000000  0.50000000
  0.00000000  0.00000000  0.75000000
  0.00000000  0.25000000  0.00000000
  0.00000000  0.25000000  0.25000000
  0.00000000  0.25000000  0.50000000
  0.00000000  0.25000000  0.75000000
  0.00000000  0.50000000  0.00000000
  0.00000000  0.50000000  0.25000000
  0.00000000  0.50000000  0.50000000
  0.00000000  0.50000000  0.75000000
  0.00000000  0.75000000  0.00000000
  0.00000000  0.75000000  0.25000000
  0.00000000  0.75000000  0.50000000
  0.00000000  0.75000000  0.75000000
  0.25000000  0.00000000  0.00000000
  0.25000000  0.00000000  0.25000000
  0.25000000  0.00000000  0.50000000
  0.25000000  0.00000000  0.75000000
  0.25000000  0.25000000  0.00000000
  0.25000000  0.25000000  0.25000000
  0.25000000  0.25000000  0.50000000
  0.25000000  0.25000000  0.75000000
  0.25000000  0.50000000  0.00000000
  0.25000000  0.50000000  0.25000000
  0.25000000  0.50000000  0.50000000
  0.25000000  0.50000000  0.75000000
  0.25000000  0.75000000  0.00000000
  0.25000000  0.75000000  0.25000000
  0.25000000  0.75000000  0.50000000
  0.25000000  0.75000000  0.75000000
  0.50000000  0.00000000  0.00000000
  0.50000000  0.00000000  0.25000000
  0.50000000  0.00000000  0.50000000
  0.50000000  0.00000000  0.75000000
  0.50000000  0.25000000  0.00000000
  0.50000000  0.25000000  0.25000000
  0.50000000  0.25000000  0.50000000
  0.50000000  0.25000000  0.75000000
  0.50000000  0.50000000  0.00000000
  0.50000000  0.50000000  0.25000000
  0.50000000  0.50000000  0.50000000
  0.50000000  0.50000000  0.75000000
  0.50000000  0.75000000  0.00000000
  0.50000000  0.75000000  0.25000000
  0.50000000  0.75000000  0.50000000
  0.50000000  0.75000000  0.75000000
  0.75000000  0.00000000  0.00000000
  0.75000000  0.00000000  0.25000000
  0.75000000  0.00000000  0.50000000
  0.75000000  0.00000000  0.75000000
  0.75000000  0.25000000  0.00000000
  0.75000000  0.25000000  0.25000000
  0.75000000  0.25000000  0.50000000
  0.75000000  0.25000000  0.75000000
  0.75000000  0.50000000  0.00000000
  0.75000000  0.50000000  0.25000000
  0.75000000  0.50000000  0.50000000
  0.75000000  0.50000000  0.75000000
  0.75000000  0.75000000  0.00000000
  0.75000000  0.75000000  0.25000000
  0.75000000  0.75000000  0.50000000
  0.75000000  0.75000000  0.75000000
end kpoints
