&control
   calculation = 'scf'
   prefix='si-u040404'
   pseudo_dir = '../../../pseudo',
   outdir='./tmp'
/
&system
   ibrav=  2,
   celldm(1) = 41.0524,  celldm(2) =0, celldm(3) =0,
   nat =  128
   ntyp = 1
   ecutwfc = 40
   noncolin = .false.
   lspinorb = .false.
/
&electrons
   conv_thr = 1.0d-12
   mixing_mode = 'plain'
   mixing_beta = 0.7
   diagonalization = 'david'
   diago_full_acc = .true.   
/
ATOMIC_SPECIES
Si 28.086 Si-PBE-Dojo-FR.upf

ATOMIC_POSITIONS (angstrom)
Si      0.00000000       0.00000000       0.00000000
Si     -1.35774976       1.35774976       1.35774976
Si     -2.71549951       0.00000000       2.71549951
Si     -4.07324927       1.35774976       4.07324927
Si     -5.43099902       0.00000000       5.43099902
Si     -6.78874878       1.35774976       6.78874878
Si     -8.14649854       0.00000000       8.14649854
Si     -9.50424829       1.35774976       9.50424829
Si      0.00000000       2.71549951       2.71549951
Si     -1.35774976       4.07324927       4.07324927
Si     -2.71549951       2.71549951       5.43099902
Si     -4.07324927       4.07324927       6.78874878
Si     -5.43099902       2.71549951       8.14649854
Si     -6.78874878       4.07324927       9.50424829
Si     -8.14649854       2.71549951      10.86199805
Si     -9.50424829       4.07324927      12.21974780
Si      0.00000000       5.43099902       5.43099902
Si     -1.35774976       6.78874878       6.78874878
Si     -2.71549951       5.43099902       8.14649854
Si     -4.07324927       6.78874878       9.50424829
Si     -5.43099902       5.43099902      10.86199805
Si     -6.78874878       6.78874878      12.21974780
Si     -8.14649854       5.43099902      13.57749756
Si     -9.50424829       6.78874878      14.93524732
Si      0.00000000       8.14649854       8.14649854
Si     -1.35774976       9.50424829       9.50424829
Si     -2.71549951       8.14649854      10.86199805
Si     -4.07324927       9.50424829      12.21974780
Si     -5.43099902       8.14649854      13.57749756
Si     -6.78874878       9.50424829      14.93524732
Si     -8.14649854       8.14649854      16.29299707
Si     -9.50424829       9.50424829      17.65074683
Si     -2.71549951       2.71549951       0.00000000
Si     -4.07324927       4.07324927       1.35774976
Si     -5.43099902       2.71549951       2.71549951
Si     -6.78874878       4.07324927       4.07324927
Si     -8.14649854       2.71549951       5.43099902
Si     -9.50424829       4.07324927       6.78874878
Si    -10.86199805       2.71549951       8.14649854
Si    -12.21974780       4.07324927       9.50424829
Si     -2.71549951       5.43099902       2.71549951
Si     -4.07324927       6.78874878       4.07324927
Si     -5.43099902       5.43099902       5.43099902
Si     -6.78874878       6.78874878       6.78874878
Si     -8.14649854       5.43099902       8.14649854
Si     -9.50424829       6.78874878       9.50424829
Si    -10.86199805       5.43099902      10.86199805
Si    -12.21974780       6.78874878      12.21974780
Si     -2.71549951       8.14649854       5.43099902
Si     -4.07324927       9.50424829       6.78874878
Si     -5.43099902       8.14649854       8.14649854
Si     -6.78874878       9.50424829       9.50424829
Si     -8.14649854       8.14649854      10.86199805
Si     -9.50424829       9.50424829      12.21974780
Si    -10.86199805       8.14649854      13.57749756
Si    -12.21974780       9.50424829      14.93524732
Si     -2.71549951      10.86199805       8.14649854
Si     -4.07324927      12.21974780       9.50424829
Si     -5.43099902      10.86199805      10.86199805
Si     -6.78874878      12.21974780      12.21974780
Si     -8.14649854      10.86199805      13.57749756
Si     -9.50424829      12.21974780      14.93524732
Si    -10.86199805      10.86199805      16.29299707
Si    -12.21974780      12.21974780      17.65074683
Si     -5.43099902       5.43099902       0.00000000
Si     -6.78874878       6.78874878       1.35774976
Si     -8.14649854       5.43099902       2.71549951
Si     -9.50424829       6.78874878       4.07324927
Si    -10.86199805       5.43099902       5.43099902
Si    -12.21974780       6.78874878       6.78874878
Si    -13.57749756       5.43099902       8.14649854
Si    -14.93524732       6.78874878       9.50424829
Si     -5.43099902       8.14649854       2.71549951
Si     -6.78874878       9.50424829       4.07324927
Si     -8.14649854       8.14649854       5.43099902
Si     -9.50424829       9.50424829       6.78874878
Si    -10.86199805       8.14649854       8.14649854
Si    -12.21974780       9.50424829       9.50424829
Si    -13.57749756       8.14649854      10.86199805
Si    -14.93524732       9.50424829      12.21974780
Si     -5.43099902      10.86199805       5.43099902
Si     -6.78874878      12.21974780       6.78874878
Si     -8.14649854      10.86199805       8.14649854
Si     -9.50424829      12.21974780       9.50424829
Si    -10.86199805      10.86199805      10.86199805
Si    -12.21974780      12.21974780      12.21974780
Si    -13.57749756      10.86199805      13.57749756
Si    -14.93524732      12.21974780      14.93524732
Si     -5.43099902      13.57749756       8.14649854
Si     -6.78874878      14.93524732       9.50424829
Si     -8.14649854      13.57749756      10.86199805
Si     -9.50424829      14.93524732      12.21974780
Si    -10.86199805      13.57749756      13.57749756
Si    -12.21974780      14.93524732      14.93524732
Si    -13.57749756      13.57749756      16.29299707
Si    -14.93524732      14.93524732      17.65074683
Si     -8.14649854       8.14649854       0.00000000
Si     -9.50424829       9.50424829       1.35774976
Si    -10.86199805       8.14649854       2.71549951
Si    -12.21974780       9.50424829       4.07324927
Si    -13.57749756       8.14649854       5.43099902
Si    -14.93524732       9.50424829       6.78874878
Si    -16.29299707       8.14649854       8.14649854
Si    -17.65074683       9.50424829       9.50424829
Si     -8.14649854      10.86199805       2.71549951
Si     -9.50424829      12.21974780       4.07324927
Si    -10.86199805      10.86199805       5.43099902
Si    -12.21974780      12.21974780       6.78874878
Si    -13.57749756      10.86199805       8.14649854
Si    -14.93524732      12.21974780       9.50424829
Si    -16.29299707      10.86199805      10.86199805
Si    -17.65074683      12.21974780      12.21974780
Si     -8.14649854      13.57749756       5.43099902
Si     -9.50424829      14.93524732       6.78874878
Si    -10.86199805      13.57749756       8.14649854
Si    -12.21974780      14.93524732       9.50424829
Si    -13.57749756      13.57749756      10.86199805
Si    -14.93524732      14.93524732      12.21974780
Si    -16.29299707      13.57749756      13.57749756
Si    -17.65074683      14.93524732      14.93524732
Si     -8.14649854      16.29299707       8.14649854
Si     -9.50424829      17.65074683       9.50424829
Si    -10.86199805      16.29299707      10.86199805
Si    -12.21974780      17.65074683      12.21974780
Si    -13.57749756      16.29299707      13.57749756
Si    -14.93524732      17.65074683      14.93524732
Si    -16.29299707      16.29299707      16.29299707
Si    -17.65074683      17.65074683      17.65074683

K_POINTS (automatic)
1 1 1 0 0 0 
