&inputpp
  outdir     =  './tmp'
  prefix     =  'si'
  seedname   =  'si'
  write_amn  =  .true.
  write_mmn  =  .true.
  write_unk  =  .false.
/
