#************************************************************************************
#*                   Generated by cif2cell 1.2.2 2015-12-07 10:46                   *
#*  T. Bjorkman, Comp. Phys. Commun. 182, 1183-1186 (2011). Please cite generously. *
#*                                                                                  *
#*                                         ()                                       *
#*             Failed to get author information, No journal information             *
#************************************************************************************

&CONTROL
  prefix = 'sto'
  calculation = 'nscf'
  outdir = './tmp'
  pseudo_dir='../pseudo'
  tprnfor = .true.
  tstress = .true.
  verbosity = 'high'
/
&SYSTEM
  ibrav = 1
  celldm(1) = 7.36993
  nat = 5
  ntyp = 3
  ecutwfc = 85
  nbnd = 30
/
&ELECTRONS
  conv_thr = 1.0d-12
  mixing_mode = 'plain'
  mixing_beta = 0.7
/
ATOMIC_SPECIES
  Sr   87.62000  Sr.upf
  Ti   47.86700  Ti.upf
  O    15.99900   O.upf
ATOMIC_POSITIONS {crystal}
Sr   0.000000000000000   0.000000000000000   0.000000000000000 
Ti   0.500000000000000   0.500000000000000   0.500000000000000 
 O   0.000000000000000   0.500000000000000   0.500000000000000 
 O   0.500000000000000   0.000000000000000   0.500000000000000 
 O   0.500000000000000   0.500000000000000   0.000000000000000 
K_POINTS crystal
64
  0.00000000  0.00000000  0.00000000  1.562500e-02 
  0.00000000  0.00000000  0.25000000  1.562500e-02 
  0.00000000  0.00000000  0.50000000  1.562500e-02 
  0.00000000  0.00000000  0.75000000  1.562500e-02 
  0.00000000  0.25000000  0.00000000  1.562500e-02 
  0.00000000  0.25000000  0.25000000  1.562500e-02 
  0.00000000  0.25000000  0.50000000  1.562500e-02 
  0.00000000  0.25000000  0.75000000  1.562500e-02 
  0.00000000  0.50000000  0.00000000  1.562500e-02 
  0.00000000  0.50000000  0.25000000  1.562500e-02 
  0.00000000  0.50000000  0.50000000  1.562500e-02 
  0.00000000  0.50000000  0.75000000  1.562500e-02 
  0.00000000  0.75000000  0.00000000  1.562500e-02 
  0.00000000  0.75000000  0.25000000  1.562500e-02 
  0.00000000  0.75000000  0.50000000  1.562500e-02 
  0.00000000  0.75000000  0.75000000  1.562500e-02 
  0.25000000  0.00000000  0.00000000  1.562500e-02 
  0.25000000  0.00000000  0.25000000  1.562500e-02 
  0.25000000  0.00000000  0.50000000  1.562500e-02 
  0.25000000  0.00000000  0.75000000  1.562500e-02 
  0.25000000  0.25000000  0.00000000  1.562500e-02 
  0.25000000  0.25000000  0.25000000  1.562500e-02 
  0.25000000  0.25000000  0.50000000  1.562500e-02 
  0.25000000  0.25000000  0.75000000  1.562500e-02 
  0.25000000  0.50000000  0.00000000  1.562500e-02 
  0.25000000  0.50000000  0.25000000  1.562500e-02 
  0.25000000  0.50000000  0.50000000  1.562500e-02 
  0.25000000  0.50000000  0.75000000  1.562500e-02 
  0.25000000  0.75000000  0.00000000  1.562500e-02 
  0.25000000  0.75000000  0.25000000  1.562500e-02 
  0.25000000  0.75000000  0.50000000  1.562500e-02 
  0.25000000  0.75000000  0.75000000  1.562500e-02 
  0.50000000  0.00000000  0.00000000  1.562500e-02 
  0.50000000  0.00000000  0.25000000  1.562500e-02 
  0.50000000  0.00000000  0.50000000  1.562500e-02 
  0.50000000  0.00000000  0.75000000  1.562500e-02 
  0.50000000  0.25000000  0.00000000  1.562500e-02 
  0.50000000  0.25000000  0.25000000  1.562500e-02 
  0.50000000  0.25000000  0.50000000  1.562500e-02 
  0.50000000  0.25000000  0.75000000  1.562500e-02 
  0.50000000  0.50000000  0.00000000  1.562500e-02 
  0.50000000  0.50000000  0.25000000  1.562500e-02 
  0.50000000  0.50000000  0.50000000  1.562500e-02 
  0.50000000  0.50000000  0.75000000  1.562500e-02 
  0.50000000  0.75000000  0.00000000  1.562500e-02 
  0.50000000  0.75000000  0.25000000  1.562500e-02 
  0.50000000  0.75000000  0.50000000  1.562500e-02 
  0.50000000  0.75000000  0.75000000  1.562500e-02 
  0.75000000  0.00000000  0.00000000  1.562500e-02 
  0.75000000  0.00000000  0.25000000  1.562500e-02 
  0.75000000  0.00000000  0.50000000  1.562500e-02 
  0.75000000  0.00000000  0.75000000  1.562500e-02 
  0.75000000  0.25000000  0.00000000  1.562500e-02 
  0.75000000  0.25000000  0.25000000  1.562500e-02 
  0.75000000  0.25000000  0.50000000  1.562500e-02 
  0.75000000  0.25000000  0.75000000  1.562500e-02 
  0.75000000  0.50000000  0.00000000  1.562500e-02 
  0.75000000  0.50000000  0.25000000  1.562500e-02 
  0.75000000  0.50000000  0.50000000  1.562500e-02 
  0.75000000  0.50000000  0.75000000  1.562500e-02 
  0.75000000  0.75000000  0.00000000  1.562500e-02 
  0.75000000  0.75000000  0.25000000  1.562500e-02 
  0.75000000  0.75000000  0.50000000  1.562500e-02 
  0.75000000  0.75000000  0.75000000  1.562500e-02 
