&control
   calculation='nscf',
   prefix='gaas' 
   pseudo_dir = '../pseudo'
   outdir='./tmp'
   wf_collect=.true.
   tstress = .true.
/
&system
   ibrav=  2, 
   celldm(1) =  10.50
   nat=  2, 
   ntyp= 2,
   ecutwfc = 72.0,
   nbnd = 24
/
&electrons
   mixing_beta     = 0.7
   conv_thr        = 1.0d-12
   diagonalization = 'david' 
   diago_full_acc  = .true. 
/
ATOMIC_SPECIES
 Ga  69.72   Ga.pz-hgh.UPF
 As  74.922  As.pz-hgh.UPF
ATOMIC_POSITIONS
 Ga 0.00000000 0.00000000 0.00000000
 As 0.25000000 0.25000000 0.25000000
K_POINTS {crystal}
512        
  0.0000000  0.0000000  0.0000000  0.01 
  0.0000000  0.0000000  0.1250000  0.01 
  0.0000000  0.0000000  0.2500000  0.01 
  0.0000000  0.0000000  0.3750000  0.01 
  0.0000000  0.0000000  0.5000000  0.01 
  0.0000000  0.0000000  0.6250000  0.01 
  0.0000000  0.0000000  0.7500000  0.01 
  0.0000000  0.0000000  0.8750000  0.01 
  0.0000000  0.1250000  0.0000000  0.01 
  0.0000000  0.1250000  0.1250000  0.01 
  0.0000000  0.1250000  0.2500000  0.01 
  0.0000000  0.1250000  0.3750000  0.01 
  0.0000000  0.1250000  0.5000000  0.01 
  0.0000000  0.1250000  0.6250000  0.01 
  0.0000000  0.1250000  0.7500000  0.01 
  0.0000000  0.1250000  0.8750000  0.01 
  0.0000000  0.2500000  0.0000000  0.01 
  0.0000000  0.2500000  0.1250000  0.01 
  0.0000000  0.2500000  0.2500000  0.01 
  0.0000000  0.2500000  0.3750000  0.01 
  0.0000000  0.2500000  0.5000000  0.01 
  0.0000000  0.2500000  0.6250000  0.01 
  0.0000000  0.2500000  0.7500000  0.01 
  0.0000000  0.2500000  0.8750000  0.01 
  0.0000000  0.3750000  0.0000000  0.01 
  0.0000000  0.3750000  0.1250000  0.01 
  0.0000000  0.3750000  0.2500000  0.01 
  0.0000000  0.3750000  0.3750000  0.01 
  0.0000000  0.3750000  0.5000000  0.01 
  0.0000000  0.3750000  0.6250000  0.01 
  0.0000000  0.3750000  0.7500000  0.01 
  0.0000000  0.3750000  0.8750000  0.01 
  0.0000000  0.5000000  0.0000000  0.01 
  0.0000000  0.5000000  0.1250000  0.01 
  0.0000000  0.5000000  0.2500000  0.01 
  0.0000000  0.5000000  0.3750000  0.01 
  0.0000000  0.5000000  0.5000000  0.01 
  0.0000000  0.5000000  0.6250000  0.01 
  0.0000000  0.5000000  0.7500000  0.01 
  0.0000000  0.5000000  0.8750000  0.01 
  0.0000000  0.6250000  0.0000000  0.01 
  0.0000000  0.6250000  0.1250000  0.01 
  0.0000000  0.6250000  0.2500000  0.01 
  0.0000000  0.6250000  0.3750000  0.01 
  0.0000000  0.6250000  0.5000000  0.01 
  0.0000000  0.6250000  0.6250000  0.01 
  0.0000000  0.6250000  0.7500000  0.01 
  0.0000000  0.6250000  0.8750000  0.01 
  0.0000000  0.7500000  0.0000000  0.01 
  0.0000000  0.7500000  0.1250000  0.01 
  0.0000000  0.7500000  0.2500000  0.01 
  0.0000000  0.7500000  0.3750000  0.01 
  0.0000000  0.7500000  0.5000000  0.01 
  0.0000000  0.7500000  0.6250000  0.01 
  0.0000000  0.7500000  0.7500000  0.01 
  0.0000000  0.7500000  0.8750000  0.01 
  0.0000000  0.8750000  0.0000000  0.01 
  0.0000000  0.8750000  0.1250000  0.01 
  0.0000000  0.8750000  0.2500000  0.01 
  0.0000000  0.8750000  0.3750000  0.01 
  0.0000000  0.8750000  0.5000000  0.01 
  0.0000000  0.8750000  0.6250000  0.01 
  0.0000000  0.8750000  0.7500000  0.01 
  0.0000000  0.8750000  0.8750000  0.01 
  0.1250000  0.0000000  0.0000000  0.01 
  0.1250000  0.0000000  0.1250000  0.01 
  0.1250000  0.0000000  0.2500000  0.01 
  0.1250000  0.0000000  0.3750000  0.01 
  0.1250000  0.0000000  0.5000000  0.01 
  0.1250000  0.0000000  0.6250000  0.01 
  0.1250000  0.0000000  0.7500000  0.01 
  0.1250000  0.0000000  0.8750000  0.01 
  0.1250000  0.1250000  0.0000000  0.01 
  0.1250000  0.1250000  0.1250000  0.01 
  0.1250000  0.1250000  0.2500000  0.01 
  0.1250000  0.1250000  0.3750000  0.01 
  0.1250000  0.1250000  0.5000000  0.01 
  0.1250000  0.1250000  0.6250000  0.01 
  0.1250000  0.1250000  0.7500000  0.01 
  0.1250000  0.1250000  0.8750000  0.01 
  0.1250000  0.2500000  0.0000000  0.01 
  0.1250000  0.2500000  0.1250000  0.01 
  0.1250000  0.2500000  0.2500000  0.01 
  0.1250000  0.2500000  0.3750000  0.01 
  0.1250000  0.2500000  0.5000000  0.01 
  0.1250000  0.2500000  0.6250000  0.01 
  0.1250000  0.2500000  0.7500000  0.01 
  0.1250000  0.2500000  0.8750000  0.01 
  0.1250000  0.3750000  0.0000000  0.01 
  0.1250000  0.3750000  0.1250000  0.01 
  0.1250000  0.3750000  0.2500000  0.01 
  0.1250000  0.3750000  0.3750000  0.01 
  0.1250000  0.3750000  0.5000000  0.01 
  0.1250000  0.3750000  0.6250000  0.01 
  0.1250000  0.3750000  0.7500000  0.01 
  0.1250000  0.3750000  0.8750000  0.01 
  0.1250000  0.5000000  0.0000000  0.01 
  0.1250000  0.5000000  0.1250000  0.01 
  0.1250000  0.5000000  0.2500000  0.01 
  0.1250000  0.5000000  0.3750000  0.01 
  0.1250000  0.5000000  0.5000000  0.01 
  0.1250000  0.5000000  0.6250000  0.01 
  0.1250000  0.5000000  0.7500000  0.01 
  0.1250000  0.5000000  0.8750000  0.01 
  0.1250000  0.6250000  0.0000000  0.01 
  0.1250000  0.6250000  0.1250000  0.01 
  0.1250000  0.6250000  0.2500000  0.01 
  0.1250000  0.6250000  0.3750000  0.01 
  0.1250000  0.6250000  0.5000000  0.01 
  0.1250000  0.6250000  0.6250000  0.01 
  0.1250000  0.6250000  0.7500000  0.01 
  0.1250000  0.6250000  0.8750000  0.01 
  0.1250000  0.7500000  0.0000000  0.01 
  0.1250000  0.7500000  0.1250000  0.01 
  0.1250000  0.7500000  0.2500000  0.01 
  0.1250000  0.7500000  0.3750000  0.01 
  0.1250000  0.7500000  0.5000000  0.01 
  0.1250000  0.7500000  0.6250000  0.01 
  0.1250000  0.7500000  0.7500000  0.01 
  0.1250000  0.7500000  0.8750000  0.01 
  0.1250000  0.8750000  0.0000000  0.01 
  0.1250000  0.8750000  0.1250000  0.01 
  0.1250000  0.8750000  0.2500000  0.01 
  0.1250000  0.8750000  0.3750000  0.01 
  0.1250000  0.8750000  0.5000000  0.01 
  0.1250000  0.8750000  0.6250000  0.01 
  0.1250000  0.8750000  0.7500000  0.01 
  0.1250000  0.8750000  0.8750000  0.01 
  0.2500000  0.0000000  0.0000000  0.01 
  0.2500000  0.0000000  0.1250000  0.01 
  0.2500000  0.0000000  0.2500000  0.01 
  0.2500000  0.0000000  0.3750000  0.01 
  0.2500000  0.0000000  0.5000000  0.01 
  0.2500000  0.0000000  0.6250000  0.01 
  0.2500000  0.0000000  0.7500000  0.01 
  0.2500000  0.0000000  0.8750000  0.01 
  0.2500000  0.1250000  0.0000000  0.01 
  0.2500000  0.1250000  0.1250000  0.01 
  0.2500000  0.1250000  0.2500000  0.01 
  0.2500000  0.1250000  0.3750000  0.01 
  0.2500000  0.1250000  0.5000000  0.01 
  0.2500000  0.1250000  0.6250000  0.01 
  0.2500000  0.1250000  0.7500000  0.01 
  0.2500000  0.1250000  0.8750000  0.01 
  0.2500000  0.2500000  0.0000000  0.01 
  0.2500000  0.2500000  0.1250000  0.01 
  0.2500000  0.2500000  0.2500000  0.01 
  0.2500000  0.2500000  0.3750000  0.01 
  0.2500000  0.2500000  0.5000000  0.01 
  0.2500000  0.2500000  0.6250000  0.01 
  0.2500000  0.2500000  0.7500000  0.01 
  0.2500000  0.2500000  0.8750000  0.01 
  0.2500000  0.3750000  0.0000000  0.01 
  0.2500000  0.3750000  0.1250000  0.01 
  0.2500000  0.3750000  0.2500000  0.01 
  0.2500000  0.3750000  0.3750000  0.01 
  0.2500000  0.3750000  0.5000000  0.01 
  0.2500000  0.3750000  0.6250000  0.01 
  0.2500000  0.3750000  0.7500000  0.01 
  0.2500000  0.3750000  0.8750000  0.01 
  0.2500000  0.5000000  0.0000000  0.01 
  0.2500000  0.5000000  0.1250000  0.01 
  0.2500000  0.5000000  0.2500000  0.01 
  0.2500000  0.5000000  0.3750000  0.01 
  0.2500000  0.5000000  0.5000000  0.01 
  0.2500000  0.5000000  0.6250000  0.01 
  0.2500000  0.5000000  0.7500000  0.01 
  0.2500000  0.5000000  0.8750000  0.01 
  0.2500000  0.6250000  0.0000000  0.01 
  0.2500000  0.6250000  0.1250000  0.01 
  0.2500000  0.6250000  0.2500000  0.01 
  0.2500000  0.6250000  0.3750000  0.01 
  0.2500000  0.6250000  0.5000000  0.01 
  0.2500000  0.6250000  0.6250000  0.01 
  0.2500000  0.6250000  0.7500000  0.01 
  0.2500000  0.6250000  0.8750000  0.01 
  0.2500000  0.7500000  0.0000000  0.01 
  0.2500000  0.7500000  0.1250000  0.01 
  0.2500000  0.7500000  0.2500000  0.01 
  0.2500000  0.7500000  0.3750000  0.01 
  0.2500000  0.7500000  0.5000000  0.01 
  0.2500000  0.7500000  0.6250000  0.01 
  0.2500000  0.7500000  0.7500000  0.01 
  0.2500000  0.7500000  0.8750000  0.01 
  0.2500000  0.8750000  0.0000000  0.01 
  0.2500000  0.8750000  0.1250000  0.01 
  0.2500000  0.8750000  0.2500000  0.01 
  0.2500000  0.8750000  0.3750000  0.01 
  0.2500000  0.8750000  0.5000000  0.01 
  0.2500000  0.8750000  0.6250000  0.01 
  0.2500000  0.8750000  0.7500000  0.01 
  0.2500000  0.8750000  0.8750000  0.01 
  0.3750000  0.0000000  0.0000000  0.01 
  0.3750000  0.0000000  0.1250000  0.01 
  0.3750000  0.0000000  0.2500000  0.01 
  0.3750000  0.0000000  0.3750000  0.01 
  0.3750000  0.0000000  0.5000000  0.01 
  0.3750000  0.0000000  0.6250000  0.01 
  0.3750000  0.0000000  0.7500000  0.01 
  0.3750000  0.0000000  0.8750000  0.01 
  0.3750000  0.1250000  0.0000000  0.01 
  0.3750000  0.1250000  0.1250000  0.01 
  0.3750000  0.1250000  0.2500000  0.01 
  0.3750000  0.1250000  0.3750000  0.01 
  0.3750000  0.1250000  0.5000000  0.01 
  0.3750000  0.1250000  0.6250000  0.01 
  0.3750000  0.1250000  0.7500000  0.01 
  0.3750000  0.1250000  0.8750000  0.01 
  0.3750000  0.2500000  0.0000000  0.01 
  0.3750000  0.2500000  0.1250000  0.01 
  0.3750000  0.2500000  0.2500000  0.01 
  0.3750000  0.2500000  0.3750000  0.01 
  0.3750000  0.2500000  0.5000000  0.01 
  0.3750000  0.2500000  0.6250000  0.01 
  0.3750000  0.2500000  0.7500000  0.01 
  0.3750000  0.2500000  0.8750000  0.01 
  0.3750000  0.3750000  0.0000000  0.01 
  0.3750000  0.3750000  0.1250000  0.01 
  0.3750000  0.3750000  0.2500000  0.01 
  0.3750000  0.3750000  0.3750000  0.01 
  0.3750000  0.3750000  0.5000000  0.01 
  0.3750000  0.3750000  0.6250000  0.01 
  0.3750000  0.3750000  0.7500000  0.01 
  0.3750000  0.3750000  0.8750000  0.01 
  0.3750000  0.5000000  0.0000000  0.01 
  0.3750000  0.5000000  0.1250000  0.01 
  0.3750000  0.5000000  0.2500000  0.01 
  0.3750000  0.5000000  0.3750000  0.01 
  0.3750000  0.5000000  0.5000000  0.01 
  0.3750000  0.5000000  0.6250000  0.01 
  0.3750000  0.5000000  0.7500000  0.01 
  0.3750000  0.5000000  0.8750000  0.01 
  0.3750000  0.6250000  0.0000000  0.01 
  0.3750000  0.6250000  0.1250000  0.01 
  0.3750000  0.6250000  0.2500000  0.01 
  0.3750000  0.6250000  0.3750000  0.01 
  0.3750000  0.6250000  0.5000000  0.01 
  0.3750000  0.6250000  0.6250000  0.01 
  0.3750000  0.6250000  0.7500000  0.01 
  0.3750000  0.6250000  0.8750000  0.01 
  0.3750000  0.7500000  0.0000000  0.01 
  0.3750000  0.7500000  0.1250000  0.01 
  0.3750000  0.7500000  0.2500000  0.01 
  0.3750000  0.7500000  0.3750000  0.01 
  0.3750000  0.7500000  0.5000000  0.01 
  0.3750000  0.7500000  0.6250000  0.01 
  0.3750000  0.7500000  0.7500000  0.01 
  0.3750000  0.7500000  0.8750000  0.01 
  0.3750000  0.8750000  0.0000000  0.01 
  0.3750000  0.8750000  0.1250000  0.01 
  0.3750000  0.8750000  0.2500000  0.01 
  0.3750000  0.8750000  0.3750000  0.01 
  0.3750000  0.8750000  0.5000000  0.01 
  0.3750000  0.8750000  0.6250000  0.01 
  0.3750000  0.8750000  0.7500000  0.01 
  0.3750000  0.8750000  0.8750000  0.01 
  0.5000000  0.0000000  0.0000000  0.01 
  0.5000000  0.0000000  0.1250000  0.01 
  0.5000000  0.0000000  0.2500000  0.01 
  0.5000000  0.0000000  0.3750000  0.01 
  0.5000000  0.0000000  0.5000000  0.01 
  0.5000000  0.0000000  0.6250000  0.01 
  0.5000000  0.0000000  0.7500000  0.01 
  0.5000000  0.0000000  0.8750000  0.01 
  0.5000000  0.1250000  0.0000000  0.01 
  0.5000000  0.1250000  0.1250000  0.01 
  0.5000000  0.1250000  0.2500000  0.01 
  0.5000000  0.1250000  0.3750000  0.01 
  0.5000000  0.1250000  0.5000000  0.01 
  0.5000000  0.1250000  0.6250000  0.01 
  0.5000000  0.1250000  0.7500000  0.01 
  0.5000000  0.1250000  0.8750000  0.01 
  0.5000000  0.2500000  0.0000000  0.01 
  0.5000000  0.2500000  0.1250000  0.01 
  0.5000000  0.2500000  0.2500000  0.01 
  0.5000000  0.2500000  0.3750000  0.01 
  0.5000000  0.2500000  0.5000000  0.01 
  0.5000000  0.2500000  0.6250000  0.01 
  0.5000000  0.2500000  0.7500000  0.01 
  0.5000000  0.2500000  0.8750000  0.01 
  0.5000000  0.3750000  0.0000000  0.01 
  0.5000000  0.3750000  0.1250000  0.01 
  0.5000000  0.3750000  0.2500000  0.01 
  0.5000000  0.3750000  0.3750000  0.01 
  0.5000000  0.3750000  0.5000000  0.01 
  0.5000000  0.3750000  0.6250000  0.01 
  0.5000000  0.3750000  0.7500000  0.01 
  0.5000000  0.3750000  0.8750000  0.01 
  0.5000000  0.5000000  0.0000000  0.01 
  0.5000000  0.5000000  0.1250000  0.01 
  0.5000000  0.5000000  0.2500000  0.01 
  0.5000000  0.5000000  0.3750000  0.01 
  0.5000000  0.5000000  0.5000000  0.01 
  0.5000000  0.5000000  0.6250000  0.01 
  0.5000000  0.5000000  0.7500000  0.01 
  0.5000000  0.5000000  0.8750000  0.01 
  0.5000000  0.6250000  0.0000000  0.01 
  0.5000000  0.6250000  0.1250000  0.01 
  0.5000000  0.6250000  0.2500000  0.01 
  0.5000000  0.6250000  0.3750000  0.01 
  0.5000000  0.6250000  0.5000000  0.01 
  0.5000000  0.6250000  0.6250000  0.01 
  0.5000000  0.6250000  0.7500000  0.01 
  0.5000000  0.6250000  0.8750000  0.01 
  0.5000000  0.7500000  0.0000000  0.01 
  0.5000000  0.7500000  0.1250000  0.01 
  0.5000000  0.7500000  0.2500000  0.01 
  0.5000000  0.7500000  0.3750000  0.01 
  0.5000000  0.7500000  0.5000000  0.01 
  0.5000000  0.7500000  0.6250000  0.01 
  0.5000000  0.7500000  0.7500000  0.01 
  0.5000000  0.7500000  0.8750000  0.01 
  0.5000000  0.8750000  0.0000000  0.01 
  0.5000000  0.8750000  0.1250000  0.01 
  0.5000000  0.8750000  0.2500000  0.01 
  0.5000000  0.8750000  0.3750000  0.01 
  0.5000000  0.8750000  0.5000000  0.01 
  0.5000000  0.8750000  0.6250000  0.01 
  0.5000000  0.8750000  0.7500000  0.01 
  0.5000000  0.8750000  0.8750000  0.01 
  0.6250000  0.0000000  0.0000000  0.01 
  0.6250000  0.0000000  0.1250000  0.01 
  0.6250000  0.0000000  0.2500000  0.01 
  0.6250000  0.0000000  0.3750000  0.01 
  0.6250000  0.0000000  0.5000000  0.01 
  0.6250000  0.0000000  0.6250000  0.01 
  0.6250000  0.0000000  0.7500000  0.01 
  0.6250000  0.0000000  0.8750000  0.01 
  0.6250000  0.1250000  0.0000000  0.01 
  0.6250000  0.1250000  0.1250000  0.01 
  0.6250000  0.1250000  0.2500000  0.01 
  0.6250000  0.1250000  0.3750000  0.01 
  0.6250000  0.1250000  0.5000000  0.01 
  0.6250000  0.1250000  0.6250000  0.01 
  0.6250000  0.1250000  0.7500000  0.01 
  0.6250000  0.1250000  0.8750000  0.01 
  0.6250000  0.2500000  0.0000000  0.01 
  0.6250000  0.2500000  0.1250000  0.01 
  0.6250000  0.2500000  0.2500000  0.01 
  0.6250000  0.2500000  0.3750000  0.01 
  0.6250000  0.2500000  0.5000000  0.01 
  0.6250000  0.2500000  0.6250000  0.01 
  0.6250000  0.2500000  0.7500000  0.01 
  0.6250000  0.2500000  0.8750000  0.01 
  0.6250000  0.3750000  0.0000000  0.01 
  0.6250000  0.3750000  0.1250000  0.01 
  0.6250000  0.3750000  0.2500000  0.01 
  0.6250000  0.3750000  0.3750000  0.01 
  0.6250000  0.3750000  0.5000000  0.01 
  0.6250000  0.3750000  0.6250000  0.01 
  0.6250000  0.3750000  0.7500000  0.01 
  0.6250000  0.3750000  0.8750000  0.01 
  0.6250000  0.5000000  0.0000000  0.01 
  0.6250000  0.5000000  0.1250000  0.01 
  0.6250000  0.5000000  0.2500000  0.01 
  0.6250000  0.5000000  0.3750000  0.01 
  0.6250000  0.5000000  0.5000000  0.01 
  0.6250000  0.5000000  0.6250000  0.01 
  0.6250000  0.5000000  0.7500000  0.01 
  0.6250000  0.5000000  0.8750000  0.01 
  0.6250000  0.6250000  0.0000000  0.01 
  0.6250000  0.6250000  0.1250000  0.01 
  0.6250000  0.6250000  0.2500000  0.01 
  0.6250000  0.6250000  0.3750000  0.01 
  0.6250000  0.6250000  0.5000000  0.01 
  0.6250000  0.6250000  0.6250000  0.01 
  0.6250000  0.6250000  0.7500000  0.01 
  0.6250000  0.6250000  0.8750000  0.01 
  0.6250000  0.7500000  0.0000000  0.01 
  0.6250000  0.7500000  0.1250000  0.01 
  0.6250000  0.7500000  0.2500000  0.01 
  0.6250000  0.7500000  0.3750000  0.01 
  0.6250000  0.7500000  0.5000000  0.01 
  0.6250000  0.7500000  0.6250000  0.01 
  0.6250000  0.7500000  0.7500000  0.01 
  0.6250000  0.7500000  0.8750000  0.01 
  0.6250000  0.8750000  0.0000000  0.01 
  0.6250000  0.8750000  0.1250000  0.01 
  0.6250000  0.8750000  0.2500000  0.01 
  0.6250000  0.8750000  0.3750000  0.01 
  0.6250000  0.8750000  0.5000000  0.01 
  0.6250000  0.8750000  0.6250000  0.01 
  0.6250000  0.8750000  0.7500000  0.01 
  0.6250000  0.8750000  0.8750000  0.01 
  0.7500000  0.0000000  0.0000000  0.01 
  0.7500000  0.0000000  0.1250000  0.01 
  0.7500000  0.0000000  0.2500000  0.01 
  0.7500000  0.0000000  0.3750000  0.01 
  0.7500000  0.0000000  0.5000000  0.01 
  0.7500000  0.0000000  0.6250000  0.01 
  0.7500000  0.0000000  0.7500000  0.01 
  0.7500000  0.0000000  0.8750000  0.01 
  0.7500000  0.1250000  0.0000000  0.01 
  0.7500000  0.1250000  0.1250000  0.01 
  0.7500000  0.1250000  0.2500000  0.01 
  0.7500000  0.1250000  0.3750000  0.01 
  0.7500000  0.1250000  0.5000000  0.01 
  0.7500000  0.1250000  0.6250000  0.01 
  0.7500000  0.1250000  0.7500000  0.01 
  0.7500000  0.1250000  0.8750000  0.01 
  0.7500000  0.2500000  0.0000000  0.01 
  0.7500000  0.2500000  0.1250000  0.01 
  0.7500000  0.2500000  0.2500000  0.01 
  0.7500000  0.2500000  0.3750000  0.01 
  0.7500000  0.2500000  0.5000000  0.01 
  0.7500000  0.2500000  0.6250000  0.01 
  0.7500000  0.2500000  0.7500000  0.01 
  0.7500000  0.2500000  0.8750000  0.01 
  0.7500000  0.3750000  0.0000000  0.01 
  0.7500000  0.3750000  0.1250000  0.01 
  0.7500000  0.3750000  0.2500000  0.01 
  0.7500000  0.3750000  0.3750000  0.01 
  0.7500000  0.3750000  0.5000000  0.01 
  0.7500000  0.3750000  0.6250000  0.01 
  0.7500000  0.3750000  0.7500000  0.01 
  0.7500000  0.3750000  0.8750000  0.01 
  0.7500000  0.5000000  0.0000000  0.01 
  0.7500000  0.5000000  0.1250000  0.01 
  0.7500000  0.5000000  0.2500000  0.01 
  0.7500000  0.5000000  0.3750000  0.01 
  0.7500000  0.5000000  0.5000000  0.01 
  0.7500000  0.5000000  0.6250000  0.01 
  0.7500000  0.5000000  0.7500000  0.01 
  0.7500000  0.5000000  0.8750000  0.01 
  0.7500000  0.6250000  0.0000000  0.01 
  0.7500000  0.6250000  0.1250000  0.01 
  0.7500000  0.6250000  0.2500000  0.01 
  0.7500000  0.6250000  0.3750000  0.01 
  0.7500000  0.6250000  0.5000000  0.01 
  0.7500000  0.6250000  0.6250000  0.01 
  0.7500000  0.6250000  0.7500000  0.01 
  0.7500000  0.6250000  0.8750000  0.01 
  0.7500000  0.7500000  0.0000000  0.01 
  0.7500000  0.7500000  0.1250000  0.01 
  0.7500000  0.7500000  0.2500000  0.01 
  0.7500000  0.7500000  0.3750000  0.01 
  0.7500000  0.7500000  0.5000000  0.01 
  0.7500000  0.7500000  0.6250000  0.01 
  0.7500000  0.7500000  0.7500000  0.01 
  0.7500000  0.7500000  0.8750000  0.01 
  0.7500000  0.8750000  0.0000000  0.01 
  0.7500000  0.8750000  0.1250000  0.01 
  0.7500000  0.8750000  0.2500000  0.01 
  0.7500000  0.8750000  0.3750000  0.01 
  0.7500000  0.8750000  0.5000000  0.01 
  0.7500000  0.8750000  0.6250000  0.01 
  0.7500000  0.8750000  0.7500000  0.01 
  0.7500000  0.8750000  0.8750000  0.01 
  0.8750000  0.0000000  0.0000000  0.01 
  0.8750000  0.0000000  0.1250000  0.01 
  0.8750000  0.0000000  0.2500000  0.01 
  0.8750000  0.0000000  0.3750000  0.01 
  0.8750000  0.0000000  0.5000000  0.01 
  0.8750000  0.0000000  0.6250000  0.01 
  0.8750000  0.0000000  0.7500000  0.01 
  0.8750000  0.0000000  0.8750000  0.01 
  0.8750000  0.1250000  0.0000000  0.01 
  0.8750000  0.1250000  0.1250000  0.01 
  0.8750000  0.1250000  0.2500000  0.01 
  0.8750000  0.1250000  0.3750000  0.01 
  0.8750000  0.1250000  0.5000000  0.01 
  0.8750000  0.1250000  0.6250000  0.01 
  0.8750000  0.1250000  0.7500000  0.01 
  0.8750000  0.1250000  0.8750000  0.01 
  0.8750000  0.2500000  0.0000000  0.01 
  0.8750000  0.2500000  0.1250000  0.01 
  0.8750000  0.2500000  0.2500000  0.01 
  0.8750000  0.2500000  0.3750000  0.01 
  0.8750000  0.2500000  0.5000000  0.01 
  0.8750000  0.2500000  0.6250000  0.01 
  0.8750000  0.2500000  0.7500000  0.01 
  0.8750000  0.2500000  0.8750000  0.01 
  0.8750000  0.3750000  0.0000000  0.01 
  0.8750000  0.3750000  0.1250000  0.01 
  0.8750000  0.3750000  0.2500000  0.01 
  0.8750000  0.3750000  0.3750000  0.01 
  0.8750000  0.3750000  0.5000000  0.01 
  0.8750000  0.3750000  0.6250000  0.01 
  0.8750000  0.3750000  0.7500000  0.01 
  0.8750000  0.3750000  0.8750000  0.01 
  0.8750000  0.5000000  0.0000000  0.01 
  0.8750000  0.5000000  0.1250000  0.01 
  0.8750000  0.5000000  0.2500000  0.01 
  0.8750000  0.5000000  0.3750000  0.01 
  0.8750000  0.5000000  0.5000000  0.01 
  0.8750000  0.5000000  0.6250000  0.01 
  0.8750000  0.5000000  0.7500000  0.01 
  0.8750000  0.5000000  0.8750000  0.01 
  0.8750000  0.6250000  0.0000000  0.01 
  0.8750000  0.6250000  0.1250000  0.01 
  0.8750000  0.6250000  0.2500000  0.01 
  0.8750000  0.6250000  0.3750000  0.01 
  0.8750000  0.6250000  0.5000000  0.01 
  0.8750000  0.6250000  0.6250000  0.01 
  0.8750000  0.6250000  0.7500000  0.01 
  0.8750000  0.6250000  0.8750000  0.01 
  0.8750000  0.7500000  0.0000000  0.01 
  0.8750000  0.7500000  0.1250000  0.01 
  0.8750000  0.7500000  0.2500000  0.01 
  0.8750000  0.7500000  0.3750000  0.01 
  0.8750000  0.7500000  0.5000000  0.01 
  0.8750000  0.7500000  0.6250000  0.01 
  0.8750000  0.7500000  0.7500000  0.01 
  0.8750000  0.7500000  0.8750000  0.01 
  0.8750000  0.8750000  0.0000000  0.01 
  0.8750000  0.8750000  0.1250000  0.01 
  0.8750000  0.8750000  0.2500000  0.01 
  0.8750000  0.8750000  0.3750000  0.01 
  0.8750000  0.8750000  0.5000000  0.01 
  0.8750000  0.8750000  0.6250000  0.01 
  0.8750000  0.8750000  0.7500000  0.01 
  0.8750000  0.8750000  0.8750000  0.01 
