&control
   calculation='scf'
   restart_mode='from_scratch',
   prefix='al',
   pseudo_dir = '../pseudo',
   outdir='./tmp'
/
&system
   ibrav=  2, celldm(1) =7.65, nat= 1, ntyp= 1,
   ecutwfc =40.0,
   occupations='smearing',
   smearing='marzari-vanderbilt', 
   degauss=0.05,
/
&electrons
   conv_thr =  1.0d-12
   mixing_beta = 0.7
/
ATOMIC_SPECIES
 Al  26.98 Al_DOJO_LDA.upf
ATOMIC_POSITIONS alat
 Al 0.00 0.00 0.00
K_POINTS {automatic}
 24 24 24 0 0 0
