&qe2pert
  prefix='svo'
  outdir='./tmp'
  phdir='../pw-ph-wann/phonon/save/'
  nk1=8,nk2=8,nk3=8
  dft_band_min=21
  dft_band_max=25
  num_wann = 3
  lwannier=.true.
  system_2d=.false.
/
