&CONTROL
 prefix = 'si'
 calculation = 'bands'
 outdir='./tmp'
 pseudo_dir = '../pseudo'
 verbosity ='high'
/
&SYSTEM
 ibrav=  2,
 celldm(1) =10.264, celldm(2) =0, celldm(3) =0,
 nat=  2
 ntyp= 1
 ecutwfc = 40
 nbnd = 16
/
&ELECTRONS
  diago_full_acc=.true.
  conv_thr = 3.0d-13
/
&BANDS
  prefix = 'si'
  outdir = './tmp'
  filband = 'bands'
/
ATOMIC_SPECIES
 Si 28.086 Si.vbc.UPF
ATOMIC_POSITIONS (alat)
 Si  0.000000  0.000000   0.000000
 Si -0.250000  0.750000  -0.250000
K_POINTS crystal_b
6
  0.500 0.500 0.500  50
  0.000 0.000 0.000  50
  0.500 0.000 0.500  20
  0.500 0.250 0.750  20
  0.375 0.375 0.750  50
  0.000 0.000 0.000  1
