&control
   calculation='bands'
   prefix='gaas'
   pseudo_dir = '../pseudo'
   outdir='./tmp'
/
&system
   ibrav=  2, 
   celldm(1) =  10.50
   nat=  2, 
   ntyp= 2,
   ecutwfc = 72.0
   nbnd = 16
/
&electrons
   mixing_beta     = 0.7
   conv_thr        = 1.0d-12
   diagonalization = 'david' 
   diago_full_acc  = .true. 
/
&BANDS
  prefix = 'gaas'
  outdir = './tmp'
  filband = 'bands'
/
ATOMIC_SPECIES
 Ga  69.72   Ga.pz-hgh.UPF
 As  74.922  As.pz-hgh.UPF
ATOMIC_POSITIONS
 Ga 0.00000000 0.00000000 0.00000000
 As 0.25000000 0.25000000 0.25000000
K_POINTS crystal_b
6
  0.500 0.500 0.500  50
  0.000 0.000 0.000  50
  0.500 0.000 0.500  20
  0.500 0.250 0.750  20
  0.375 0.375 0.750  50
  0.000 0.000 0.000  1
