&inputpp
  outdir='./tmp/'
  prefix = 'sto'
  seedname = 'sto'
  write_mmn = .true.
  write_amn = .true.
/

