
begin projections
 Ti:dxy;dyz;dxz
end projections

guiding_centres=true 

num_wann = 3
num_bands = 3
exclude_bands : 1-20, 24-30

iprint =  2
num_iter =   10

dis_froz_min =   11.000
dis_froz_max =   14.520
dis_num_iter = 10

write_u_matrices = .true.
write_xyz = .true.

!restart = plot

bands_plot = true                                                              
begin kpoint_path                                                              
 G 0.0 0.0 0.0   M 0.0 0.5 0.5
 M 0.0 0.5 0.5   X 0.0 0.5 0.0 
 X 0.0 0.5 0.0   G 0.0 0.0 0.0
 G 0.0 0.0 0.0   R 0.5 0.5 0.5
end kpoint_path 


begin unit_cell_cart
bohr
7.36993  0.000000  0.000000 
0.0000000  7.36993  0.000000 
0.0000000  0.000000  7.36993
end unit_cell_cart

begin atoms_frac
 Sr    0.0000000   0.0000000   0.0000000  
 Ti    0.5000000   0.5000000   0.5000000  
 O     0.0000000   0.5000000   0.5000000  
 O     0.5000000   0.0000000   0.5000000  
 O     0.5000000   0.5000000   0.0000000  
end atoms_frac

mp_grid : 4 4 4 
begin kpoints
  0.00000000  0.00000000  0.00000000  
  0.00000000  0.00000000  0.25000000  
  0.00000000  0.00000000  0.50000000  
  0.00000000  0.00000000  0.75000000  
  0.00000000  0.25000000  0.00000000  
  0.00000000  0.25000000  0.25000000  
  0.00000000  0.25000000  0.50000000  
  0.00000000  0.25000000  0.75000000  
  0.00000000  0.50000000  0.00000000  
  0.00000000  0.50000000  0.25000000  
  0.00000000  0.50000000  0.50000000  
  0.00000000  0.50000000  0.75000000  
  0.00000000  0.75000000  0.00000000  
  0.00000000  0.75000000  0.25000000  
  0.00000000  0.75000000  0.50000000  
  0.00000000  0.75000000  0.75000000  
  0.25000000  0.00000000  0.00000000  
  0.25000000  0.00000000  0.25000000  
  0.25000000  0.00000000  0.50000000  
  0.25000000  0.00000000  0.75000000  
  0.25000000  0.25000000  0.00000000  
  0.25000000  0.25000000  0.25000000  
  0.25000000  0.25000000  0.50000000  
  0.25000000  0.25000000  0.75000000  
  0.25000000  0.50000000  0.00000000  
  0.25000000  0.50000000  0.25000000  
  0.25000000  0.50000000  0.50000000  
  0.25000000  0.50000000  0.75000000  
  0.25000000  0.75000000  0.00000000  
  0.25000000  0.75000000  0.25000000  
  0.25000000  0.75000000  0.50000000  
  0.25000000  0.75000000  0.75000000  
  0.50000000  0.00000000  0.00000000  
  0.50000000  0.00000000  0.25000000  
  0.50000000  0.00000000  0.50000000  
  0.50000000  0.00000000  0.75000000  
  0.50000000  0.25000000  0.00000000  
  0.50000000  0.25000000  0.25000000  
  0.50000000  0.25000000  0.50000000  
  0.50000000  0.25000000  0.75000000  
  0.50000000  0.50000000  0.00000000  
  0.50000000  0.50000000  0.25000000  
  0.50000000  0.50000000  0.50000000  
  0.50000000  0.50000000  0.75000000  
  0.50000000  0.75000000  0.00000000  
  0.50000000  0.75000000  0.25000000  
  0.50000000  0.75000000  0.50000000  
  0.50000000  0.75000000  0.75000000  
  0.75000000  0.00000000  0.00000000  
  0.75000000  0.00000000  0.25000000  
  0.75000000  0.00000000  0.50000000  
  0.75000000  0.00000000  0.75000000  
  0.75000000  0.25000000  0.00000000  
  0.75000000  0.25000000  0.25000000  
  0.75000000  0.25000000  0.50000000  
  0.75000000  0.25000000  0.75000000  
  0.75000000  0.50000000  0.00000000  
  0.75000000  0.50000000  0.25000000  
  0.75000000  0.50000000  0.50000000  
  0.75000000  0.50000000  0.75000000  
  0.75000000  0.75000000  0.00000000  
  0.75000000  0.75000000  0.25000000  
  0.75000000  0.75000000  0.50000000  
  0.75000000  0.75000000  0.75000000  
end kpoints

