! This input file for PERTURBO was generated by generate_input.py script
&qe2pert
prefix = 'sto-nosoc'
outdir = './tmp'
phdir = '../sscha/phonon/save'
nk1 = 4
nk2 = 4
nk3 = 4
num_wann = 3
dft_band_min = 21
dft_band_max = 23
lwannier = .true.
/
