Phonons on a uniform grid
&inputph
  verbosity='debug'
  tr2_ph=1.0d-17
  prefix='al'
  ldisp=.true.
  lqdir=.true.
  outdir='./tmp'
  fildyn  = 'al.dyn.xml'
  fildvscf = 'dvscf'
  nq1=8, nq2=8, nq3=8,
  !nk1=24, nk2=24, nk3=24
  start_q=1
  last_q=1
/
