Phonons on a uniform grid
&inputph
  verbosity='debug'
  tr2_ph=1.0d-17
  prefix='diam'
  ldisp=.true.
  epsil=.true.
  lqdir = .true.
  outdir='./tmp'
  fildyn  = 'diam.dyn.xml'
  fildvscf = 'dvscf'
  nq1=4, nq2=4, nq3=4,
  nk1=4, nk2=4, nk3=4
  nmix_ph = 20
  start_q =
  last_q =
/
