&control
  prefix = 'diam'
  calculation = 'scf'
  outdir = 'tmp'
  pseudo_dir = '../pseudo/'
  tprnfor = .true.
  tstress = .true.
  verbosity = 'high'
/
&system
 ibrav = 2
 celldm(1) = 6.725
 nat = 2
 ntyp = 1
 ecutwfc = 120.0
 noncolin = .true.
 lspinorb = .true.
/
&electrons
  conv_thr = 1.0d-25
  mixing_mode = 'plain'
  mixing_beta = 0.7
  diagonalization = 'david'
  diago_full_acc = .true.    
/
ATOMIC_SPECIES
 C  12.01078  C_fr_pbesol.upf 
ATOMIC_POSITIONS crystal 
 C  0.00000000  0.00000000  0.00000000
 C  -0.25000000  0.75000000  -0.25000000
K_POINTS (automatic)
4 4 4 0 0 0
