 # cell
&SYSTEM
  ibrav = 0
  celldm(1) =       1.889726125458
  nat = 320
  ntyp = 3
/
CELL_PARAMETERS {alat}
     15.60014408000000     0.00000000000000     0.00000000000000
      0.00000000000000    15.60014408000000     0.00000000000000
      0.00000000000000     0.00000000000000    15.60014408000000
ATOMIC_SPECIES
  Sr     87.61664410490000  Sr_PSEUDO
  Ti     47.86674924516001  Ti_PSEUDO
   O     15.99940492713047   O_PSEUDO
ATOMIC_POSITIONS {crystal}
Sr    0.99070643715724   0.00179430356925   0.00418186868069
Sr    0.99673616431745   0.01343345852582   0.24275875850831
Sr    0.00574187163599   0.99728777774152   0.49963290883358
Sr    0.98949325314277   0.01685199503025   0.74569402351549
Sr    0.99982524398950   0.24509049233019   0.99968020614589
Sr    0.99287118085377   0.25667506290297   0.24500726738691
Sr    0.00046351337165   0.25393165638729   0.49843102732655
Sr    0.00193431180746   0.24885731226495   0.74500743580236
Sr    0.99606059425754   0.50426217622058   0.01834054824952
Sr    0.00144735126128   0.50016222027564   0.25052223885620
Sr    0.99094386189333   0.51682623414236   0.50131572160463
Sr    0.00738539222468   0.49602469109479   0.75949412408986
Sr    0.00213356667611   0.74362865140760   0.00312428616478
Sr    0.00671299852819   0.74958398716410   0.26436054350145
Sr    0.98417000256742   0.75155419043149   0.51216287663885
Sr    0.99790891210732   0.75455189174053   0.76807719457402
Sr    0.25248745492804   0.01003975134478   0.00622972150772
Sr    0.24810102205048   0.99823172017461   0.24430500252956
Sr    0.25719478083596   0.99614734525096   0.51047316672463
Sr    0.25483117802204   0.00288278196709   0.75609171417312
Sr    0.26477201312288   0.25796152836040   0.99931290853387
Sr    0.24346327299831   0.26623700310863   0.26498494657395
Sr    0.25924652607074   0.23078782488994   0.48524975861010
Sr    0.23869876661270   0.26132607640814   0.73614449314843
Sr    0.26248781762333   0.48898789863704   0.00574152773070
Sr    0.23959727545070   0.49592649043698   0.25978118698167
Sr    0.26498624454115   0.48492993225606   0.49434667837729
Sr    0.24899568923061   0.50223198077872   0.74089620208965
Sr    0.23984238716739   0.73536086521431   0.99828882118618
Sr    0.24580031949112   0.74709363436263   0.24743564979055
Sr    0.24783241523419   0.75076335870688   0.50335565022575
Sr    0.25531929242914   0.76065939739027   0.76653737307660
Sr    0.50567346197789   0.00299016533673   0.99679389020460
Sr    0.49596832750922   0.98082478421127   0.25922850088200
Sr    0.49356085130814   0.98471103810623   0.49263949082780
Sr    0.49496415734234   0.99784147166476   0.77206614382290
Sr    0.51226355557079   0.25141098705959   0.99578283357128
Sr    0.51597936548018   0.25725493971183   0.22557986251223
Sr    0.49248033994420   0.25233799189890   0.49810043134540
Sr    0.49810120287019   0.24592798773129   0.72968110952207
Sr    0.49165390268627   0.50098762004946   0.99436011862545
Sr    0.50342354227804   0.50807255955709   0.24522908352700
Sr    0.50896749339019   0.49828829272019   0.51293955963090
Sr    0.49818090522767   0.50780149030632   0.75224183689521
Sr    0.49690654424910   0.74756709855404   0.99602626775567
Sr    0.48614610450778   0.74080467855068   0.23829388144764
Sr    0.50467506332121   0.72226998908301   0.51415518554398
Sr    0.48326979216658   0.76690838871989   0.75421281278600
Sr    0.74504388377498   0.00388976422060   0.00334747100664
Sr    0.75685040719135   0.99507249388270   0.25227781207315
Sr    0.74242567756409   0.98773800984467   0.49900009197617
Sr    0.74250808503974   0.00039673881424   0.73432996180715
Sr    0.74400582585636   0.24637645331315   0.00160924970675
Sr    0.74943186878952   0.24793635068125   0.24205187642548
Sr    0.74346524093884   0.24818203109317   0.49702332025495
Sr    0.75717588725898   0.24003264834731   0.74834228471653
Sr    0.75860032485361   0.49424463448523   0.98448539027218
Sr    0.76081445239165   0.51357477963110   0.25208786319418
Sr    0.74621127327801   0.50414077584920   0.51338767968434
Sr    0.75497645332018   0.49778544611777   0.73303422061024
Sr    0.73665193104952   0.75370202940178   0.99363508075456
Sr    0.75531077212585   0.73721797369295   0.23459528260981
Sr    0.75271661451593   0.76152362568584   0.49917461392623
Sr    0.73443510731209   0.76367840391999   0.75589227173114
Ti    0.11995096578567   0.10614241735518   0.12666374474132
Ti    0.13456585375817   0.12488000327173   0.37945040176090
Ti    0.11817158623706   0.11520042906957   0.63474824735694
Ti    0.12622716001858   0.12777308371809   0.87275582708642
Ti    0.13138255048052   0.36712075994315   0.13858299520328
Ti    0.13015437468730   0.35663413050183   0.38302285856163
Ti    0.12965693461636   0.35948413895375   0.62087055139106
Ti    0.12684887145705   0.36950692006731   0.87506517231954
Ti    0.12983828353923   0.62396774075970   0.12585705763572
Ti    0.13123512105320   0.61950199068107   0.37920477077076
Ti    0.13240965164373   0.61811335993904   0.62415838633909
Ti    0.13062753621422   0.63209830596536   0.88990550425336
Ti    0.12685897875506   0.87038249057651   0.12982960138632
Ti    0.12315568058398   0.87175521736785   0.37387359620840
Ti    0.12317047287934   0.87200655308490   0.63431662459451
Ti    0.12596305986394   0.88524225957148   0.88012063679431
Ti    0.38626382776651   0.11018293936198   0.11950517892913
Ti    0.37800917349831   0.13428303545074   0.36131836692471
Ti    0.36849333164631   0.11427785994623   0.62620172918407
Ti    0.38449577175556   0.13468929324004   0.86501862580264
Ti    0.36573622280471   0.36950797575618   0.12653142424450
Ti    0.38168148114952   0.37037865324251   0.37631976277905
Ti    0.37268286559136   0.37297815331358   0.61965356166391
Ti    0.37158752008994   0.38350788503706   0.88043106087957
Ti    0.38793778697024   0.61928056024062   0.12474695332006
Ti    0.37693136234834   0.63808438682005   0.38187100989125
Ti    0.37630362149064   0.62425862999980   0.62690280905635
Ti    0.37220047847424   0.63332158089579   0.86884532245729
Ti    0.37949067996755   0.86350457385813   0.12575079686916
Ti    0.38218795355205   0.88154579435781   0.37670375048945
Ti    0.36581508323430   0.87158037079605   0.62566062764940
Ti    0.37601855826157   0.87761724291574   0.87623863142010
Ti    0.63922014762914   0.13464539798232   0.13312059998305
Ti    0.63379834161335   0.13210760168560   0.38271022513814
Ti    0.61638536766625   0.12435028754436   0.62557591227255
Ti    0.62732031179395   0.13789617816700   0.86669755452310
Ti    0.62265596138906   0.37521637913208   0.12661410918758
Ti    0.62134780465214   0.37942892167592   0.36664584339199
Ti    0.62109709130646   0.36731731093876   0.62933918902111
Ti    0.62420118419038   0.38676706778551   0.85419847180823
Ti    0.62527809045108   0.61539885122545   0.11993101434498
Ti    0.63355835554830   0.62401138398350   0.36048463430249
Ti    0.62366471256259   0.63797374939542   0.62796430778794
Ti    0.62024650743892   0.62742163249187   0.87311422947241
Ti    0.62278058422136   0.87249277213671   0.12377774551603
Ti    0.61629075785399   0.86463058796387   0.36184841399206
Ti    0.62238306775290   0.87984578890373   0.61879218322089
Ti    0.61631880251893   0.87403718670388   0.86964117245831
Ti    0.87445070461535   0.12903786531487   0.11661099377135
Ti    0.87650781443604   0.12458539616505   0.37152240067109
Ti    0.87005436275167   0.12949559180074   0.62663772286628
Ti    0.86584228817041   0.14093922656680   0.85681832167001
Ti    0.87283171535490   0.37684485182322   0.13097435609163
Ti    0.87912734215804   0.36541144277834   0.39057219614225
Ti    0.89095375398107   0.38144764609519   0.62468167845167
Ti    0.87654575480443   0.38841630281381   0.87285006826879
Ti    0.87688175463281   0.63170346197285   0.13103071806497
Ti    0.86707666655106   0.63669634930802   0.36598369487911
Ti    0.88457842266165   0.63977400119220   0.62419376068466
Ti    0.87957929174418   0.63502157587979   0.87324402698625
Ti    0.87569400826444   0.88339578014508   0.13278586112502
Ti    0.87031127365184   0.87064521786390   0.36732501212857
Ti    0.88638080126160   0.87027598166370   0.62950037080256
Ti    0.86311706686921   0.87747734723406   0.87793615441648
O     0.99455771405971   0.13054994490553   0.11342946688820
O     0.00698513358070   0.12426389687174   0.39511677234978
O     0.99758020287047   0.12775367857885   0.63068587057301
O     0.99464466475811   0.12409736994609   0.88537191480684
O     0.00312311234927   0.38532628754703   0.12655865021456
O     0.00912726543284   0.37175448440074   0.36921256967916
O     0.00386674110918   0.38646672198144   0.61718988426148
O     0.00753272269879   0.39382983470513   0.88058679654201
O     0.00340222628271   0.62377927752549   0.12595291496033
O     0.00223792642090   0.63863177389273   0.35886337115056
O     0.00875330959294   0.62805850282467   0.61807523473948
O     0.99685185280108   0.61364820892991   0.87852762211198
O     0.00716216838045   0.89478558930674   0.13398274934119
O     0.00301130177936   0.87095217175938   0.37088055078343
O     0.00626355450865   0.86972587302302   0.63325869371095
O     0.00296011618708   0.87298683185892   0.86390246920571
O     0.26371684529161   0.10949279739493   0.13692810372051
O     0.24806272655812   0.11866499044436   0.36398139084466
O     0.25039835667392   0.13049056454881   0.63287354961189
O     0.25164363567200   0.11593765215319   0.87536082232857
O     0.25302397213860   0.37945589095572   0.11422302985035
O     0.24775605541843   0.38153026074007   0.37520233472440
O     0.24374942067300   0.34122116198261   0.61532899316894
O     0.24879281037210   0.35221252425383   0.88221882064828
O     0.25563277683947   0.63048293028474   0.11560244888238
O     0.25068577529270   0.62449736533242   0.39579011651977
O     0.26041525868924   0.62876978931753   0.62081833471057
O     0.23164716869799   0.60332785538936   0.87672407337934
O     0.25034748929427   0.87239821285111   0.12193688912003
O     0.24937106401180   0.86561167014491   0.36954208338271
O     0.23249236972081   0.87184471239323   0.63292967071998
O     0.25405758544574   0.86667851553132   0.90142606723027
O     0.51335757836071   0.11982221675112   0.11717978682010
O     0.50373665070809   0.13270579829055   0.35808647149268
O     0.49440649560433   0.11552371257135   0.61041854476785
O     0.51299767954001   0.12405037585828   0.87536748350867
O     0.49366932447821   0.38397758487213   0.12959462679790
O     0.49654730211314   0.35753640176759   0.37582406580287
O     0.51185676623649   0.38163314584963   0.62027985577637
O     0.50372414665066   0.36683342872531   0.87492579486227
O     0.49372471355506   0.63453482198548   0.10337437214327
O     0.50240125950719   0.64341490933123   0.38368533318293
O     0.49987126743067   0.61269260226073   0.61540097388869
O     0.49744705384787   0.64315240430112   0.86279248150780
O     0.50073412560456   0.85828891929145   0.11465864764760
O     0.50419084349674   0.85732273599932   0.38044944622893
O     0.49911999395289   0.87039651159142   0.61447635314204
O     0.49279624408958   0.89454012323839   0.86164154147947
O     0.75398297810869   0.11359045508812   0.12343970615434
O     0.75911069809814   0.10944500565091   0.36748806659798
O     0.74417837570076   0.12847600785305   0.62125461017500
O     0.73904951142035   0.11597312492669   0.87973411048560
O     0.74555633879282   0.36436376796158   0.11415951899906
O     0.75042127956878   0.37821178051597   0.37677206492736
O     0.75034174348145   0.36098568701868   0.63127887928019
O     0.74757926439965   0.37923332465181   0.85808769936375
O     0.74051420089852   0.62293182953386   0.12052086513720
O     0.73979912242312   0.63031664515300   0.37456463030214
O     0.74865147661581   0.63341347331201   0.62722812881731
O     0.75084089204257   0.63593864443936   0.87717157356262
O     0.74064265949508   0.86909732278891   0.11824931931693
O     0.75157853634861   0.88138639752919   0.36051490267736
O     0.74893489030075   0.86315502495633   0.65395704977504
O     0.74342965240977   0.88527719640610   0.87045633647561
O     0.13325120143025   0.00289800426027   0.13491253881833
O     0.12677292841348   0.00166986157553   0.39569143239569
O     0.13748240874502   0.99534251137826   0.62736426386502
O     0.12750017943609   0.99874041798498   0.87289417643188
O     0.12984574447035   0.23553474186128   0.12316847800898
O     0.14035897457385   0.23841687919410   0.37365855163867
O     0.12062854657183   0.24643422551587   0.62052365314535
O     0.11929916852534   0.24668032101635   0.88737778045248
O     0.13196365823161   0.48725749470921   0.13168153979071
O     0.11277918650284   0.48027110055216   0.38575133970409
O     0.12618521119133   0.48963757655365   0.62641759686849
O     0.11920798232798   0.49291306115979   0.89039573883074
O     0.10838174403311   0.75293335399645   0.12858001026914
O     0.10201353231324   0.74152966439181   0.38268476123562
O     0.13104453879500   0.74722118197543   0.62478582273394
O     0.13425107202598   0.75959513253217   0.88561078251042
O     0.40055282016153   0.99301844659788   0.14300635726377
O     0.37467047824486   0.00530253052386   0.36081673832785
O     0.35847688229986   0.98848828813342   0.61825635708362
O     0.38367639104510   0.99317084445656   0.88262961533924
O     0.36985112340852   0.24222409553534   0.11841675638395
O     0.37335831417784   0.25047700030280   0.36045158345245
O     0.39669092446944   0.24459163921830   0.62654685401826
O     0.37309085669824   0.24934867460934   0.89266299885374
O     0.39670032486164   0.48876186779865   0.15699031743136
O     0.39315053547400   0.49623584691414   0.38989437185927
O     0.37375579920923   0.49905717050898   0.61896650685507
O     0.36669116918149   0.50627663138663   0.87192971733384
O     0.36478501905958   0.74568586883726   0.12832776196039
O     0.37339646784377   0.76513951650139   0.37905826377212
O     0.36098775673700   0.74321714883329   0.63487499021577
O     0.36470415871850   0.75977062167903   0.87677640376287
O     0.62257529869213   0.99872769514677   0.13644160172594
O     0.62056382607874   0.99161598494431   0.38017979449829
O     0.63371748442699   0.99525508395331   0.62235756092292
O     0.63130730589747   0.00511639338246   0.88260757615535
O     0.62016664000729   0.25047047172187   0.13306883580497
O     0.62967584639063   0.25539193439337   0.38715532373326
O     0.62541829273618   0.25179369331020   0.61963121133560
O     0.61778990416653   0.25140792895674   0.88649331744126
O     0.62635134283266   0.48914507643354   0.12771003142130
O     0.61820577993017   0.50774920260864   0.37317116231374
O     0.63692998519276   0.49794413292669   0.63782534822588
O     0.62304059440980   0.51020668438037   0.88131570394317
O     0.62104750806335   0.73828479246565   0.13106055391108
O     0.62917340116034   0.73718407662762   0.37026724086798
O     0.62418512745341   0.75875457397545   0.61334636676668
O     0.63133616068443   0.75601565814358   0.87196866723200
O     0.86841197833656   0.00630449424369   0.12133682986806
O     0.89885780373841   0.99722835284678   0.38300781615898
O     0.88564981771198   0.99516348628248   0.62533597127300
O     0.88452662453720   0.00748808976199   0.87124807250786
O     0.87692182732612   0.25351714868709   0.11057600691576
O     0.87999587550719   0.24266636086940   0.36129037733044
O     0.87271253088189   0.26216959430968   0.60848430168483
O     0.88541138365785   0.26208747918115   0.85953236109967
O     0.86594357542278   0.50649621659632   0.11798427198212
O     0.88756542447208   0.51377923260529   0.36877491363036
O     0.88204196824904   0.50959941841962   0.64288164803149
O     0.87811032410915   0.49856623007656   0.86997297980175
O     0.87528369857935   0.74446259566819   0.11735181014871
O     0.84772060038607   0.75276077248764   0.37618010552559
O     0.87750789508786   0.75319935523828   0.63047384630229
O     0.87757591917121   0.75511465369924   0.87529278251443
O     0.13281250391075   0.12519455946346   0.98481270899354
O     0.11861390229643   0.11874960328570   0.25791876637175
O     0.15755077957930   0.14791259899789   0.51246161667091
O     0.11761660644694   0.13864878309381   0.75431118710919
O     0.14595573353592   0.36930536682795   0.99823981436254
O     0.12721626792038   0.38222000023721   0.25512930879726
O     0.13647328756618   0.37739333327764   0.49584728900497
O     0.12892636558504   0.37974670020218   0.75717249485576
O     0.11615910278689   0.60708368025295   0.01471018979449
O     0.12492270145121   0.63237141409953   0.25911502334150
O     0.12342763296771   0.62397997029496   0.51112936651232
O     0.12249532610998   0.61825662330599   0.75802490047992
O     0.10944800827406   0.88652589586000   0.00441788985451
O     0.11171775706930   0.87686841219387   0.25337607532859
O     0.11371111611379   0.88218455087530   0.49998355153258
O     0.13379698803682   0.87733808905447   0.75361313775152
O     0.39338721602583   0.12156529266672   0.99343022737593
O     0.39397516899192   0.11852345183980   0.24002441957488
O     0.34479045717618   0.11519927248214   0.49229363283368
O     0.38667525390731   0.11109318618125   0.75258482128711
O     0.37185628943647   0.36962266791261   0.99940097617386
O     0.37361846629726   0.38276917009669   0.25514623961274
O     0.37211380934213   0.36584931157121   0.50169050041805
O     0.37116241542252   0.38335278325426   0.74640759674085
O     0.36621221191546   0.63887224454513   0.00186312333662
O     0.37076873701424   0.62392282261936   0.25735223285918
O     0.36452040981332   0.59907171261993   0.50382977545351
O     0.39400569077276   0.62851032664260   0.74430225148467
O     0.35629858788029   0.88444270468615   0.00254410914694
O     0.35891721136219   0.87314206772733   0.23529892530065
O     0.36143082391261   0.87780820429429   0.49663397827161
O     0.38357051210181   0.87254598308230   0.74559601585339
O     0.63329398586083   0.11218638166175   0.99890534401988
O     0.63382274998332   0.11931981647376   0.26058587747701
O     0.62380213154586   0.12777792914975   0.48785323625474
O     0.62633735165105   0.12287785807006   0.75064804933806
O     0.62049581858426   0.36747562883698   0.98428626021822
O     0.61886624438238   0.39806513602406   0.23500486045017
O     0.62415037070364   0.37601451522043   0.50791842161319
O     0.60900956290136   0.37981565103916   0.74898176616931
O     0.62560014073069   0.62016467295967   0.98142809011716
O     0.63488911561524   0.63008638413917   0.24901402968493
O     0.63822700132776   0.62644739687682   0.50364617471307
O     0.63061126181109   0.62987820980469   0.76094886098191
O     0.61680902245577   0.86564999815199   0.00047544625226
O     0.62667116089552   0.87116045011030   0.25450092445219
O     0.61745711598287   0.87340107798344   0.50316001247051
O     0.61827565679705   0.88597341449688   0.74790800997499
O     0.88990623851644   0.13236339159074   0.99289996234610
O     0.85416595385814   0.11870141486098   0.23818963115695
O     0.86975385886228   0.12959627944266   0.49672551579255
O     0.88393379254626   0.12180041571395   0.73188964984608
O     0.86296715827393   0.38148604796575   0.99921954097829
O     0.86569231631839   0.38370113335727   0.26253129113374
O     0.88148473246110   0.37504925813406   0.50198674462425
O     0.89894920105841   0.37623321484492   0.75531809643712
O     0.86978656498594   0.61881207913232   0.99979061037162
O     0.87473513846403   0.62407666147419   0.25592447429009
O     0.86974196418089   0.62340691683292   0.49848872056239
O     0.88465561655882   0.62755656755680   0.75805808031850
O     0.87989894850238   0.87039782108008   0.00634308400114
O     0.86886194861495   0.87939831124647   0.24345909613724
O     0.87691504612248   0.87972111495577   0.49821215240757
O     0.87090160699852   0.87147164960777   0.75403249721256
