 # cell
&SYSTEM
  ibrav = 0
  celldm(1) =       1.889726125458
  nat = 320
  ntyp = 3
/
CELL_PARAMETERS {alat}
     15.60014408000000     0.00000000000000     0.00000000000000
      0.00000000000000    15.60014408000000     0.00000000000000
      0.00000000000000     0.00000000000000    15.60014408000000
ATOMIC_SPECIES
  Sr     87.61664410490000  Sr_PSEUDO
  Ti     47.86674924516001  Ti_PSEUDO
   O     15.99940492713047   O_PSEUDO
ATOMIC_POSITIONS {crystal}
Sr    0.99989155032361   0.01084925556107   0.99501419580666
Sr    0.98602037139146   0.99781539501181   0.24546414469171
Sr    0.99175738014671   0.99641036866907   0.50177858693786
Sr    0.99111856199435   0.00575513878830   0.76547196366196
Sr    0.00353685828570   0.23871532538866   0.99554853107039
Sr    0.00928438328490   0.23746127092818   0.24191489976943
Sr    0.99875718048292   0.25152122434741   0.49453344897508
Sr    0.00637341891772   0.23371722521837   0.74626789008913
Sr    0.00603234368821   0.48553458759529   0.00395995378728
Sr    0.97858773342641   0.50692395720141   0.25043500621891
Sr    0.99578056944275   0.49561125890205   0.49498797219101
Sr    0.01465618980471   0.49727425656165   0.74814816273377
Sr    0.98784024309455   0.74507793070817   0.99825879487839
Sr    0.97324300387524   0.75102440070159   0.26239510207573
Sr    0.98793989782387   0.72794537133298   0.48906503872691
Sr    0.00628853493385   0.75508839062953   0.76632766349494
Sr    0.25487323257541   0.01560388083040   0.00483524323031
Sr    0.25216711159987   0.01235629619268   0.25011387983684
Sr    0.23698208538515   0.00945721254856   0.49511187436649
Sr    0.25443066168956   0.98652877986507   0.75222803725721
Sr    0.26427576370228   0.25612763830241   0.01007759188819
Sr    0.26160002499525   0.24135300066327   0.25068196926163
Sr    0.26270759129838   0.24921239838806   0.49581648110408
Sr    0.24225590408708   0.23658994098858   0.74994813841885
Sr    0.24225736913470   0.50661351626349   0.00499702444004
Sr    0.27268372639125   0.49417198393350   0.24534317870656
Sr    0.25656685656637   0.49649101494448   0.48899286908428
Sr    0.24265070865791   0.51640217271620   0.74223220944912
Sr    0.22548426430141   0.75000745782692   0.01077453563132
Sr    0.25846512668464   0.75817404789374   0.24435597261984
Sr    0.23153782544959   0.76528038263144   0.48598494671543
Sr    0.24258123302923   0.74993678913809   0.75467838120731
Sr    0.49514219070553   0.00256294492125   0.99428125042219
Sr    0.48820757963018   0.00769719111878   0.25213346079016
Sr    0.50193493581592   0.99591732495418   0.51182923685793
Sr    0.51107003975000   0.99773449760160   0.75479187891326
Sr    0.49452140680390   0.26241575295698   0.99618769695577
Sr    0.51928521951018   0.25820911248873   0.25862199125392
Sr    0.50280954155931   0.24854279480227   0.50044125046219
Sr    0.49011192941365   0.24458682624403   0.75614166855421
Sr    0.49281254141200   0.51095109321515   0.99145921550146
Sr    0.51128451631221   0.50326881768818   0.24595204241033
Sr    0.51405480954386   0.50114788177803   0.50189442044087
Sr    0.50307679038379   0.51024096404391   0.74014135564314
Sr    0.48727264518059   0.75005172172741   0.01214951673146
Sr    0.48640352280980   0.76120527485037   0.24997170765361
Sr    0.49747466986391   0.73534063627015   0.49111942830630
Sr    0.50092659444898   0.74787640627607   0.76709975121733
Sr    0.74895217913986   0.00257878500394   0.00727013507804
Sr    0.76137388641260   0.00866430783208   0.25656179686259
Sr    0.75172744602214   0.02145735018489   0.51995015079339
Sr    0.75042623919357   0.99779645214310   0.75528819064887
Sr    0.73913438086893   0.24726420127966   0.99486258311647
Sr    0.75451614426209   0.24687795968096   0.24632249760126
Sr    0.74754122742146   0.24640450837929   0.50745926096338
Sr    0.75290551698607   0.24080178990205   0.74137907462427
Sr    0.76382306416674   0.50748242959670   0.99120720817008
Sr    0.77493544329989   0.51815602291880   0.23297899182558
Sr    0.75739591358977   0.50222669848325   0.49996157526967
Sr    0.75510154318288   0.49392963932357   0.75219075055456
Sr    0.75672314747047   0.75099284902992   0.00378705166512
Sr    0.73449606036706   0.75796313121540   0.24131462025841
Sr    0.76417717503625   0.75929634897473   0.49912992297524
Sr    0.75849441257926   0.73642681330053   0.76544082584693
Ti    0.13824262621088   0.13028309354163   0.13587063184658
Ti    0.11942183127832   0.12079713857017   0.37190747444221
Ti    0.13263490254264   0.12065902124948   0.62178763839912
Ti    0.12609686196489   0.13315279518984   0.87841926951005
Ti    0.12546829692007   0.36886810687608   0.11579756137194
Ti    0.13399431558504   0.37089248571477   0.36446421647400
Ti    0.13436778972946   0.36477663967583   0.61909453357785
Ti    0.12151769085601   0.37236615385276   0.88168726323999
Ti    0.12141130811552   0.62764157161858   0.12504535163774
Ti    0.13366671428143   0.61717521106286   0.37397761948984
Ti    0.11098497287153   0.60952192788383   0.63071272208600
Ti    0.12650800500181   0.62257722698745   0.87273246829178
Ti    0.10855425765577   0.87226196847348   0.12840304036115
Ti    0.12780315696432   0.89073076870599   0.38401705062006
Ti    0.12547064499471   0.86998226484463   0.63152981611207
Ti    0.11566640363057   0.87633009254665   0.87016785188515
Ti    0.38635412217772   0.11701318385161   0.12169352253640
Ti    0.37997085194434   0.12322221741926   0.36819316103394
Ti    0.38027761512373   0.12105740224367   0.62083035121227
Ti    0.38563042716341   0.12579279760659   0.86238742756506
Ti    0.36357142281921   0.38867549261001   0.13766402590019
Ti    0.37789402792131   0.37900395440994   0.36880822456699
Ti    0.37203996381586   0.37151487909113   0.62782376046351
Ti    0.36849380315429   0.37054392988160   0.88326112809655
Ti    0.36329553315306   0.63146964818568   0.11936889461122
Ti    0.38894727658517   0.62553867366609   0.35940267179814
Ti    0.38927528608658   0.62390270321365   0.62301545084654
Ti    0.37171694257262   0.62890727189424   0.88394208696999
Ti    0.37180986413245   0.87195257985149   0.12956503194107
Ti    0.37250755632416   0.87708324830305   0.37868818690116
Ti    0.37335198417745   0.86236631584973   0.61252379651679
Ti    0.38050220689900   0.88478416985946   0.87600261832714
Ti    0.63291803663678   0.11868769127330   0.12784568682424
Ti    0.63084380293296   0.12953461065266   0.36493678236057
Ti    0.62182311506544   0.11609866780375   0.62804947197815
Ti    0.61637280506908   0.13038085826869   0.87090716102667
Ti    0.63404774527666   0.38111504361699   0.11634412300582
Ti    0.62548664959166   0.38184189224205   0.38767197916238
Ti    0.63238490893702   0.36115352543221   0.62999197411158
Ti    0.61849012841317   0.37453667707791   0.86278974859842
Ti    0.61270036478360   0.61195124029804   0.12099969908796
Ti    0.63026253778600   0.62562441391289   0.35884224806649
Ti    0.63206159017592   0.61823168398893   0.62163902174411
Ti    0.62592343366660   0.62763435982560   0.87861421931988
Ti    0.62385969452224   0.86916047206118   0.11264184896601
Ti    0.62913259094415   0.87105460223587   0.37518028397720
Ti    0.62294482849596   0.87811603931054   0.63441864843994
Ti    0.62597084756871   0.86640997367671   0.89218563903969
Ti    0.86160729753978   0.13301055536394   0.11504716129107
Ti    0.87260110418232   0.12988834567572   0.35995853619189
Ti    0.87935241766471   0.11141229106989   0.62590344980687
Ti    0.86652607724082   0.11884905733152   0.88560612626250
Ti    0.87376826627530   0.37413397473019   0.12683504269648
Ti    0.87513561702299   0.37690741854668   0.38112724998663
Ti    0.88083762939435   0.36446588049945   0.61663392044259
Ti    0.88533621646837   0.37661580246799   0.88152478258393
Ti    0.87281254405117   0.64269297704946   0.12435994398873
Ti    0.88911231722391   0.62254668788007   0.37568454790503
Ti    0.87281845970446   0.62315595448658   0.62784166157393
Ti    0.87160829337276   0.61499893963436   0.86495544993551
Ti    0.86859567436571   0.88202869767874   0.13779412111577
Ti    0.87495026346214   0.88160610827623   0.38883883325163
Ti    0.87723725083494   0.87120857223115   0.62530325058971
Ti    0.87650472455878   0.85737249693022   0.90214259033211
O     0.99544978844301   0.12964406057327   0.11276664372764
O     0.99918550071135   0.12281379585497   0.37484772044742
O     0.99742338054678   0.11540553870080   0.62440592860329
O     0.00037927587662   0.12154941801265   0.87800552484273
O     0.99573356781113   0.37196111004683   0.12533563174699
O     0.00334119064893   0.36324118118517   0.36825043052045
O     0.01143834376401   0.36467309398564   0.62346635552612
O     0.00894221409087   0.35765908680753   0.88388619277466
O     0.99660357689223   0.64398790004221   0.12389981409821
O     0.01063203269649   0.62674217651873   0.34755400716294
O     0.99143222541661   0.63411801951143   0.62955510719505
O     0.00289092231898   0.61316562061209   0.87795389508585
O     0.99216513787401   0.87161244483475   0.10792058084757
O     0.99253464263002   0.87081765035851   0.36084062818445
O     0.99847005948941   0.87120287979800   0.61560736847179
O     0.00050370591961   0.87475530098079   0.89202531683606
O     0.26294360338987   0.12790230972768   0.12050610415202
O     0.24435002904018   0.12421854691709   0.38699557071127
O     0.25050161256214   0.13213205762389   0.63551294058564
O     0.25732251657530   0.12725325400964   0.88114466589770
O     0.24551560144696   0.38681252913678   0.11926481942977
O     0.24296733361137   0.36651450816488   0.36882092739029
O     0.25301355889214   0.36175485532724   0.62866803184174
O     0.24378802694103   0.36193416139853   0.88486021530526
O     0.23906024055276   0.63350398169230   0.11887874781685
O     0.25886815504805   0.63086769024099   0.36716883167353
O     0.25189214768268   0.63075917598917   0.61386623247845
O     0.24076131573580   0.62890927253670   0.88168814630077
O     0.25231874093230   0.89111105004726   0.11918646198911
O     0.25262432950566   0.90234549553692   0.37192057368403
O     0.26809541335778   0.87295262642999   0.62479962911428
O     0.23639646130727   0.89280355473564   0.87829744186954
O     0.50880582500191   0.14008174654435   0.13015755206601
O     0.50652096889400   0.11692356799091   0.36852034565549
O     0.49816139031476   0.10507125781236   0.62317788579965
O     0.50050804550325   0.14209199416697   0.86760957744234
O     0.48872200662482   0.37933997404814   0.11054612730321
O     0.48512817934298   0.36337580218555   0.36840978788376
O     0.49885553259979   0.36081998437090   0.62216387099754
O     0.49678029693105   0.38985409496432   0.87279756003677
O     0.48466734113769   0.61921015756793   0.10571393259479
O     0.49610613194848   0.64265943712045   0.35963313763066
O     0.50545045830511   0.63223152115036   0.62014552101299
O     0.49614664890331   0.62860394216255   0.85570004575719
O     0.49939128857603   0.88190514815476   0.12547687931016
O     0.50447896709772   0.88737095515399   0.37057279141633
O     0.49678085372171   0.85972154804013   0.63768422553258
O     0.49990549022561   0.87359229634042   0.87276663095943
O     0.74972776759764   0.13250525970580   0.13113729565760
O     0.75091378185896   0.14440646350887   0.38510010134045
O     0.76049080621000   0.13429703426155   0.64844933199468
O     0.74902117277753   0.12545013273681   0.87408917981809
O     0.75380419756320   0.38668289851056   0.11101791755449
O     0.75154167691440   0.36845561757372   0.36551329544300
O     0.76149363598287   0.36783894940906   0.63543638319199
O     0.75800522273256   0.36425389627993   0.86790247832959
O     0.74762805330775   0.62613723947651   0.11851962098561
O     0.75689924279140   0.61241558142097   0.37359590851046
O     0.75038632989971   0.61932352692897   0.61348780616301
O     0.75011843226090   0.65429160800656   0.86834183654670
O     0.74034502687334   0.87265037892723   0.11350317370061
O     0.74518082289786   0.88086467276962   0.37646378311654
O     0.74782212572157   0.88367478722174   0.63128826184648
O     0.74533602045516   0.85110441685649   0.87742093595690
O     0.13273030070697   0.00797057842007   0.14392575002669
O     0.11628170830219   0.99813126094763   0.36948228313572
O     0.11974663949557   0.00338227532855   0.63727375291029
O     0.13297564526906   0.99932311825486   0.87209593248787
O     0.14024177510325   0.25473031203837   0.12777186123598
O     0.12998882872343   0.24076825337835   0.36089794400339
O     0.13967456638783   0.24296992953618   0.62915967387379
O     0.10198742408868   0.25105646140881   0.89170253358070
O     0.10416253498724   0.50370712749540   0.11957934818175
O     0.11721840837159   0.49881460702688   0.35786231846320
O     0.13236058489054   0.49362560543599   0.62050788098291
O     0.14368416100238   0.49490842607501   0.87767097524934
O     0.10478690262602   0.75324142540644   0.12416395926355
O     0.12656192793426   0.76259804009722   0.38068141380141
O     0.11683909580621   0.73686315360299   0.62243733436810
O     0.12102816603574   0.75067075639791   0.87218963149728
O     0.37359074498334   0.99128329481660   0.11194819884003
O     0.38067556519269   0.01060726351511   0.38088455047835
O     0.38061433796498   0.99324767408583   0.62808718753880
O     0.36938896372247   0.00678262034000   0.88145774709051
O     0.36812666369513   0.26014940850757   0.14538290356409
O     0.37566766108122   0.25105031868090   0.36639164840432
O     0.37348291105150   0.24410336059102   0.62444297942512
O     0.36199541514264   0.25557584771176   0.87153508226100
O     0.37491935472457   0.50892720613459   0.10866194470877
O     0.38985376810905   0.49677529981844   0.36703954633937
O     0.36184859121867   0.50505259044147   0.60744467955641
O     0.35469607381224   0.50768349270524   0.86101324020100
O     0.37122685983283   0.74938948651458   0.12496498326458
O     0.36938546132704   0.74381079731800   0.36905368239554
O     0.37666670685519   0.72793830649901   0.61916677887940
O     0.35977465079115   0.75320520059091   0.88305777344505
O     0.61478360665415   0.99126755237232   0.12251938606026
O     0.62307234901721   0.99621333273531   0.37803992309292
O     0.62270873625058   0.99664277270282   0.63777642583546
O     0.62440453601225   0.00565647698458   0.89023268045015
O     0.63512097481328   0.24104263641703   0.12776345210645
O     0.63239350379376   0.25218846191415   0.36791648436567
O     0.61580412757940   0.23992278523785   0.62394040456746
O     0.62064118923663   0.25013015442843   0.87422730516130
O     0.63000987191357   0.49722540911364   0.11969551136417
O     0.62724946761940   0.50344617441023   0.38581734498640
O     0.62552995478441   0.48988745029224   0.61396530309671
O     0.64331681102432   0.50631406388901   0.87644270734647
O     0.61423982888590   0.75072034005060   0.12145025130661
O     0.61107009668743   0.74745335670768   0.36346246252852
O     0.63901162533092   0.75467213350057   0.62536986460788
O     0.61336370211356   0.75058689111468   0.88600152274849
O     0.86564455675424   0.99526662333421   0.12961204630257
O     0.86092415854633   0.01241621759310   0.39236617894774
O     0.88138381123846   0.97914675974384   0.64048790130728
O     0.87999406342317   0.99556648508690   0.86080156371276
O     0.85779264523402   0.26284084938807   0.12520052187120
O     0.87812981499298   0.25333848631742   0.39247486532375
O     0.87893523862725   0.23878390692511   0.63414694084508
O     0.87079645483994   0.24019896224268   0.87714790966869
O     0.86696871963088   0.50230784473502   0.11215664006672
O     0.87660518786780   0.50527478052896   0.36765823496855
O     0.87683826895418   0.48749971710472   0.60768645498475
O     0.87115175265968   0.49565089302364   0.87664698617784
O     0.85960011711635   0.75492028788647   0.13334372170923
O     0.86761719114129   0.75125778694800   0.36115983609241
O     0.87933133577355   0.74784212295541   0.64572234796573
O     0.88181340703051   0.74828402892852   0.88566131570307
O     0.13498195741478   0.12471602437705   0.01441939786640
O     0.11205413277269   0.12129344722994   0.25359830572665
O     0.11470093082524   0.14577664308009   0.50760341616263
O     0.11350053331530   0.12344618750650   0.75423400030408
O     0.12862891845556   0.35859739650067   0.99868547209011
O     0.12208575946966   0.37433784645669   0.23986037030573
O     0.13136289952718   0.36792184762934   0.50074314385642
O     0.12912466098907   0.35952940726355   0.74795383381278
O     0.10665905484400   0.62317681852843   0.00452736263407
O     0.12370119228521   0.63433257530089   0.24542025857228
O     0.11937432660592   0.62490835683771   0.49797472163453
O     0.11254782219187   0.61503443577842   0.74771279555068
O     0.12760812893314   0.85835892376179   0.00044767659511
O     0.13632451508742   0.89750059284724   0.24785290057353
O     0.12083747993867   0.88112377637881   0.50605369543088
O     0.12686259633260   0.85750291085246   0.75466475842169
O     0.36843716897785   0.13731191759264   0.99094003890578
O     0.39204770103829   0.13305088334464   0.24204611498770
O     0.38611179769455   0.12397341638563   0.50477210983718
O     0.36865838852626   0.10090822016392   0.75313756516414
O     0.36939126060561   0.36797005145117   0.00637028409593
O     0.38682275221939   0.37832622164243   0.24760964751069
O     0.36888816054563   0.37834500234780   0.49687798993328
O     0.36116004134968   0.37761852272419   0.75598970861984
O     0.36884708000478   0.62601253993073   0.99969753595758
O     0.37016331852359   0.63486673006128   0.22956077497376
O     0.37357758318318   0.61966054768157   0.49176836115695
O     0.38099560132985   0.62626830584882   0.74758356702161
O     0.36903699264758   0.87951286939621   0.99936744700802
O     0.38077868705419   0.87286313209330   0.25072533626563
O     0.39498683193372   0.88413227399476   0.48316827459052
O     0.36047545903286   0.87107435230243   0.74925809879883
O     0.60551877922472   0.14211937024052   0.00008908254763
O     0.62782023474417   0.14055982169209   0.25208777491768
O     0.62613774401270   0.13118227708865   0.50339459962620
O     0.60866744125888   0.13923558886058   0.75811091730153
O     0.63066853407010   0.37816329431499   0.98482630747662
O     0.63237536274241   0.37591601252811   0.24276498244905
O     0.63568716695687   0.36392964852137   0.50282597503703
O     0.61898087113300   0.34992927344377   0.75105026277672
O     0.64358722587263   0.63076632354828   0.00210410547347
O     0.62183129617840   0.61873210840574   0.23734542065834
O     0.63160719568151   0.62351010544705   0.48890308513681
O     0.62429132277599   0.62152931798306   0.75513878209661
O     0.62199096056972   0.87991762845161   0.99668886353489
O     0.62316124998463   0.88074875423393   0.24589483659224
O     0.62929730629688   0.86901921613256   0.50397519124354
O     0.61223658246663   0.88502025538161   0.75475108384410
O     0.87666765627799   0.12014787925857   0.00485760693765
O     0.87561575161776   0.12764833924451   0.24681251797547
O     0.87759047364223   0.13351269790519   0.49791358791938
O     0.87185263156859   0.10421847725172   0.75131933028790
O     0.85431673779727   0.37532620615008   0.01344587061097
O     0.87523104102139   0.36614694984710   0.24704247778416
O     0.88561020368081   0.36823614861150   0.49143545006283
O     0.88655325599920   0.36567422983118   0.73764012700670
O     0.88064929708232   0.63287290356221   0.99826537800017
O     0.88438731076169   0.62547232456727   0.24220442504107
O     0.87242268234820   0.60648783899987   0.50981868011508
O     0.88202186706766   0.60145618864043   0.74720365566855
O     0.88309949417967   0.88366626043466   0.01531782724241
O     0.86261665046374   0.87201638465415   0.26021997794891
O     0.89012407628565   0.86963911630260   0.51490530462096
O     0.87455089886564   0.86988769912957   0.76450155731894
