 # cell
&SYSTEM
  ibrav = 0
  celldm(1) =       1.889726125458
  nat = 320
  ntyp = 3
/
CELL_PARAMETERS {alat}
     15.60014408000000     0.00000000000000     0.00000000000000
      0.00000000000000    15.60014408000000     0.00000000000000
      0.00000000000000     0.00000000000000    15.60014408000000
ATOMIC_SPECIES
  Sr     87.61664410490000  Sr_PSEUDO
  Ti     47.86674924516001  Ti_PSEUDO
   O     15.99940492713047   O_PSEUDO
ATOMIC_POSITIONS {crystal}
Sr    0.98885412947429   0.98815392480159   0.00988395491360
Sr    0.99480612362454   0.98679492783296   0.25431122505827
Sr    0.99611150889515   0.00286859760491   0.49983529398569
Sr    0.99863989829504   0.00287936482002   0.74238728690076
Sr    0.00353870223661   0.25474557621149   0.01066210701615
Sr    0.00521950578608   0.27439334067742   0.25014642313509
Sr    0.98896763401089   0.24367664554331   0.51044336612917
Sr    0.98999003903443   0.25111158172847   0.74281632276456
Sr    0.00840906382090   0.49900330971598   0.99853727336479
Sr    0.00370043244662   0.49674547710709   0.24965345671924
Sr    0.99983030847064   0.49050972815922   0.50468523488963
Sr    0.00351802615797   0.48998197071565   0.74350358464503
Sr    0.98688242151610   0.74789740309713   0.99095118469356
Sr    0.99375264780563   0.73412569615028   0.24393513306680
Sr    0.01410836450082   0.74277051630280   0.50409398587390
Sr    0.02117134699822   0.75723209865532   0.75400010947321
Sr    0.24086376593648   0.99294710863142   0.00786782954486
Sr    0.25207070675246   0.00355895165480   0.25843453049902
Sr    0.26238303315522   0.99742929381627   0.49674059624814
Sr    0.25050474053224   0.01042780200140   0.74471646384704
Sr    0.25644715903054   0.25568219699073   0.99266501616598
Sr    0.26012803383340   0.26802151000416   0.25746732533659
Sr    0.26160987866366   0.24800199682383   0.48710382505436
Sr    0.24951494030373   0.24622844865461   0.75801811974899
Sr    0.25347331831579   0.50521087302305   0.99969255235254
Sr    0.25862809867929   0.48919781952453   0.25634124048795
Sr    0.26098874565699   0.51798656469067   0.51054821169600
Sr    0.25281560567128   0.51338776448465   0.75258270030702
Sr    0.24474391246410   0.76211900547996   0.00807145558128
Sr    0.25367431579756   0.76933852068498   0.25367059937578
Sr    0.24747529506846   0.75003568378660   0.49119198301166
Sr    0.24023195686050   0.76157170554613   0.75614048170364
Sr    0.49650141331687   0.97832927760847   0.00411800427716
Sr    0.50038997555359   0.99042247445523   0.24234992483739
Sr    0.50726043099508   0.99733925272599   0.50005230910137
Sr    0.49455676602632   0.99094926884933   0.74641708469675
Sr    0.48862607003347   0.25977264506513   0.97677780067577
Sr    0.48498238702123   0.23561045147981   0.25337082316485
Sr    0.50980731733948   0.26560893903270   0.48905081934699
Sr    0.48814424007452   0.24057857919947   0.73283818247976
Sr    0.51043518045888   0.51006735895653   0.00035811617669
Sr    0.49355500525799   0.51716748438541   0.24936657206276
Sr    0.49689418959710   0.52729064395816   0.50716686682661
Sr    0.50090807559236   0.48983697164886   0.74936763024829
Sr    0.50295992120934   0.74119338449321   0.01009890653791
Sr    0.48248014339846   0.75082786870205   0.23251951047899
Sr    0.50605056451423   0.75103256180246   0.49879694878992
Sr    0.50592518844835   0.73392559424126   0.75568784162669
Sr    0.75787523374697   0.99616770359536   0.01064155951798
Sr    0.75380260938011   0.98448984780809   0.23888927029716
Sr    0.75778753817704   0.00932387089507   0.50065689214146
Sr    0.76139912753035   0.99078681906745   0.76385082035742
Sr    0.74945829323547   0.24796759954737   0.99291020805100
Sr    0.74594153621619   0.23922713134538   0.25289649625063
Sr    0.74594507767663   0.24617883659560   0.49765432803670
Sr    0.74902195257613   0.24137361292222   0.74268607891179
Sr    0.75039934296215   0.49709106908600   0.98933486028876
Sr    0.74327806243412   0.49616522396612   0.25763561340352
Sr    0.73728641960708   0.49803818620259   0.50796380414526
Sr    0.76735114520476   0.50032303410795   0.74883617286941
Sr    0.74491369721934   0.73901103602717   0.00355742569667
Sr    0.74348126127428   0.73320362515992   0.24938423440855
Sr    0.75205138739031   0.75862928595270   0.50856467937887
Sr    0.75493955502141   0.75620228994654   0.76269171323310
Ti    0.13327223495261   0.13077589385504   0.12957062380469
Ti    0.11512036563364   0.11751873493360   0.37199164841394
Ti    0.14001967450247   0.13674639972653   0.60967342714358
Ti    0.12188101945042   0.13850661041003   0.86923114334862
Ti    0.12919832013760   0.37391429354608   0.13016203962820
Ti    0.11780288920247   0.36767659410160   0.37805310327888
Ti    0.12569017974500   0.38251790956919   0.62794992394517
Ti    0.11883160344363   0.38597000021915   0.87254787190545
Ti    0.12444838076764   0.63173801673324   0.12659008116443
Ti    0.11411082863770   0.62067900133797   0.36554843606285
Ti    0.10828040444725   0.63467764244625   0.62932925944466
Ti    0.12109370997275   0.64030502238104   0.86924395160421
Ti    0.12002757032101   0.88013937562211   0.12108836049740
Ti    0.12871165297918   0.86939349484642   0.37444712444644
Ti    0.13514345287322   0.87932496057862   0.63371494713629
Ti    0.12661800990253   0.88689019213381   0.87610782237314
Ti    0.37787192120667   0.11881253014314   0.12400661561445
Ti    0.37836286918869   0.12812025626111   0.37101974895308
Ti    0.38594514155528   0.12688412265459   0.61484211278627
Ti    0.37931311244593   0.12114339715606   0.88417232069623
Ti    0.39358333515204   0.38556474113343   0.12777194262790
Ti    0.38158398215530   0.36734408751195   0.36506543898650
Ti    0.38519503440216   0.38763882480788   0.62282139959643
Ti    0.37769118598619   0.37223090817747   0.86745910327704
Ti    0.38196207727819   0.63371575061667   0.12911079206603
Ti    0.36282135206609   0.61588182003561   0.36201920361101
Ti    0.37204911038386   0.63087651220099   0.63433628535742
Ti    0.36913835242826   0.62902592793887   0.87764135293575
Ti    0.36760066872020   0.89192302140664   0.11371635786634
Ti    0.37208011645609   0.87916952133112   0.36520275344221
Ti    0.37691555566672   0.88682282046148   0.61879587866249
Ti    0.36470822939745   0.87597317232371   0.87632910378746
Ti    0.62492626816319   0.13307421411301   0.11952560611234
Ti    0.62252834962194   0.12925303665264   0.37993103258414
Ti    0.62643269539518   0.11998787065990   0.62837856395814
Ti    0.62378598164690   0.11588626457030   0.88117756200359
Ti    0.62921707607572   0.37853446876518   0.13925885223340
Ti    0.61647379052587   0.38736388026033   0.37227897738066
Ti    0.61292650240386   0.37682192221128   0.62118192655996
Ti    0.63589446425844   0.36683842468042   0.87864524025216
Ti    0.61731196362216   0.62587361987737   0.14067417336419
Ti    0.62328829863480   0.62655516999850   0.37506185561019
Ti    0.61089940605265   0.62305188779427   0.62812740467518
Ti    0.61394196059654   0.61682561175681   0.88774388066197
Ti    0.62015656240446   0.86400666538566   0.12979046425682
Ti    0.61533233961314   0.87630396682439   0.38330829932598
Ti    0.63624355222944   0.87211190365849   0.61452052203624
Ti    0.62865724383003   0.86938070413927   0.87894235961742
Ti    0.88260513036719   0.12794618297418   0.11231009929349
Ti    0.86849678886830   0.11698890024470   0.36542797760397
Ti    0.87077258986513   0.11597068622761   0.61478230268644
Ti    0.87619659201126   0.14171197275825   0.86674523671339
Ti    0.88425147202171   0.38037086142409   0.12890722918259
Ti    0.88562084547422   0.37763972322271   0.38195655087435
Ti    0.87800826141642   0.36718582914085   0.63353645860047
Ti    0.87926448936372   0.36889727077602   0.89184355090172
Ti    0.87637723606197   0.61981709744055   0.11455093829895
Ti    0.86795990381346   0.62300119513487   0.37706055294812
Ti    0.87429666683031   0.62032508062732   0.63173989709994
Ti    0.87085726115155   0.62369065908568   0.86457191678820
Ti    0.87787479092615   0.88879307508661   0.13324214588966
Ti    0.87511786127643   0.86573832733075   0.38412172468215
Ti    0.87323296392674   0.85607773485844   0.63198130618125
Ti    0.87013579024403   0.86890848894969   0.87431490731584
O     0.99503544336884   0.11597902829316   0.11997895948009
O     0.98182695839810   0.14235664027259   0.36870305336054
O     0.00315528465784   0.12952216937905   0.62424524418049
O     0.99040550036258   0.12742636578619   0.86995040178174
O     0.01681684118582   0.36642802165316   0.10922355242584
O     0.99459091575854   0.37759397659481   0.36283048208979
O     0.00077079594460   0.36415576118647   0.63030692215844
O     0.99307213968500   0.37372872241045   0.88145980042655
O     0.99711629791183   0.62315119334172   0.12531924235867
O     0.98840018919288   0.60933123670877   0.37416356732340
O     0.00738733529735   0.60251842984902   0.60266356247818
O     0.98554249966219   0.61151035932720   0.87355494329786
O     0.99690642707834   0.85708195650480   0.14096384889689
O     0.00074546323465   0.87038352319163   0.36763886789456
O     0.00910967730037   0.85654181581414   0.63034386698819
O     0.00060632867870   0.87535838362644   0.86200282380103
O     0.24777196890263   0.14634060110260   0.12763511948432
O     0.24905217258552   0.13285141408324   0.36698947271028
O     0.25691316032540   0.12779162944730   0.60451497774860
O     0.25065117281429   0.11652582941649   0.87111074872277
O     0.26353379389615   0.38420947935864   0.11846179239058
O     0.25528369198664   0.36673328661913   0.39345481668567
O     0.24962928491603   0.38490287806304   0.62555445705998
O     0.25806260661043   0.36212773310199   0.88403232813195
O     0.25090008387803   0.62938671858415   0.11695253053732
O     0.25499646075393   0.63706002520131   0.35920089973975
O     0.25265146241759   0.62109683429964   0.61316869334094
O     0.23595097238586   0.65667697518704   0.88303345725852
O     0.23282934841385   0.89977578727615   0.12594212927566
O     0.25855553657013   0.86610073448511   0.38219616798039
O     0.25801612010568   0.86200132485599   0.64129829281996
O     0.24868744964813   0.87723262398893   0.89598553656296
O     0.48717901128500   0.15224828677634   0.11179111036009
O     0.50508385897240   0.12879009802992   0.36359143562296
O     0.50951772871956   0.12185077539841   0.62415945145791
O     0.49926562334421   0.10721968037790   0.87268154454561
O     0.51900832221434   0.38391572004970   0.09568972176188
O     0.50323568225168   0.38634082589960   0.37491171847641
O     0.50369518068629   0.38539006228873   0.63634866852507
O     0.50785229282928   0.37697532742193   0.86037625570931
O     0.50357871907608   0.63384037422620   0.11201125981084
O     0.49617043184058   0.62540022617126   0.39230508157436
O     0.49134015780185   0.62946944955472   0.62546289036197
O     0.48881658237768   0.60306551053616   0.87287785157954
O     0.49185028010952   0.86043022393753   0.11713203001669
O     0.48909571998423   0.88240342755322   0.37641804492580
O     0.49474376555538   0.85625506925357   0.61909254360654
O     0.49886554156110   0.87035863662330   0.87703980315348
O     0.74519019339409   0.11738207755245   0.12374025379012
O     0.74097722985470   0.13262050918054   0.38146604916436
O     0.75175086055092   0.11935128229446   0.63237742716479
O     0.74606283840094   0.12146517058246   0.86307683208303
O     0.75077789989914   0.36803611003304   0.12617622458472
O     0.74749144914293   0.38721822797244   0.36571926562453
O     0.74612715488799   0.38648717372646   0.62011140547890
O     0.75892332221216   0.37807230295954   0.85286154928016
O     0.74428854850720   0.61372266990233   0.12345758392575
O     0.73757724526876   0.63130786207727   0.36868204369521
O     0.74114217579473   0.62033399827859   0.64166058720061
O     0.74022022490611   0.62944920025995   0.87884074154321
O     0.74609257148176   0.87614942239231   0.12163134769730
O     0.73084834311220   0.86826342030272   0.37660064570521
O     0.75413137377152   0.88953529586322   0.61160911864237
O     0.74950090370103   0.86453419029878   0.87865475604576
O     0.11185556945676   0.00330856583904   0.13154878545929
O     0.11081117982665   0.99612944539613   0.38294876640187
O     0.10360778995590   0.99142014336252   0.63117247508996
O     0.12435033490968   0.01507147614248   0.88488481599078
O     0.12677291149582   0.25673641658021   0.14831818382553
O     0.11046262582142   0.24711762471953   0.38312841908302
O     0.14527175303555   0.25843478932127   0.61972140528130
O     0.11901131044013   0.24148004506753   0.86835192106184
O     0.14758297251420   0.50022505552656   0.11377416321856
O     0.12428443207772   0.48705955242713   0.37397178013148
O     0.11496946094964   0.49807896272475   0.62444246902838
O     0.11772347037731   0.51696074865564   0.89347401639985
O     0.13107815882666   0.75293124761802   0.12430928546104
O     0.10548045134737   0.74328144013183   0.36889585653490
O     0.12877022926418   0.74016602298453   0.61275659634539
O     0.10731723430843   0.76741156610356   0.87069359238519
O     0.36878395082610   0.01240122606713   0.12121204914056
O     0.37241022589807   0.01025913244189   0.36328747372728
O     0.36630199534637   0.99977351902181   0.62342610092042
O     0.37009471537991   0.99362097892346   0.87674552412696
O     0.36729210796055   0.24753189584543   0.12417809612555
O     0.37863673475066   0.26011703486504   0.34796980688012
O     0.37189899200534   0.26195893209081   0.60424427747195
O     0.37564283844564   0.24560400023848   0.87519056904904
O     0.38037645977041   0.50659470917747   0.12796695546433
O     0.36381918371840   0.49706896315438   0.36585441216536
O     0.38166085056634   0.50651472543654   0.63254098582876
O     0.36082389265965   0.50440774358755   0.87286975780689
O     0.37461346719905   0.76187408612767   0.12109013710201
O     0.36718049736933   0.75285526542088   0.38603998917886
O     0.38384892529974   0.75671707310437   0.62511069857203
O     0.37170551241748   0.75858668443644   0.88005573464662
O     0.61495727713685   0.99318611456872   0.11712546602453
O     0.63929801166456   0.00188677053550   0.37642944026270
O     0.63069939014507   0.00505393346646   0.63054440813001
O     0.63647812200622   0.99320525539335   0.86493106194827
O     0.63048039714630   0.25291139398551   0.12134308586638
O     0.62324509641294   0.25713035082522   0.38156326590209
O     0.61796378136844   0.24921003023832   0.62137460870629
O     0.63495759766219   0.24599314775211   0.87475764487549
O     0.64886361615914   0.49837455288511   0.11460019914062
O     0.62899049388597   0.50587957173741   0.38133873615860
O     0.60570442815908   0.50212633047979   0.63515558864248
O     0.63147503347363   0.49314115987464   0.87778824031531
O     0.62491751465162   0.74516411586454   0.12816673701987
O     0.60182858963561   0.75073218394385   0.36213201588357
O     0.63181755664447   0.74934415786729   0.63678279050765
O     0.62688321960060   0.74632041936576   0.87952464562421
O     0.87162346554730   0.00164590577293   0.12606825211842
O     0.86907043107760   0.98837888265505   0.36988381797334
O     0.87124719666311   0.99725846606786   0.61738016496603
O     0.87596591424286   0.00657857405505   0.88286230136424
O     0.87532572082893   0.24832297448714   0.11911893577999
O     0.85179048421718   0.24672143537317   0.36324402787307
O     0.86100592633393   0.24850963266422   0.62387387993085
O     0.87026539428269   0.25700751055979   0.87832171182180
O     0.89136881004474   0.49081603869961   0.11341941388622
O     0.86726572479237   0.50415783963908   0.37547417682713
O     0.89231230180445   0.49348993525074   0.61661575355383
O     0.88022294117250   0.50677920865709   0.88566603698430
O     0.86331090803351   0.75051587121380   0.14107724284516
O     0.88264395310039   0.74349690162758   0.36960326854734
O     0.87134454820678   0.73642339757415   0.61739282891283
O     0.88716131172386   0.75192667570532   0.88146478867337
O     0.12361200419826   0.13548061754460   0.00689145271565
O     0.11530697723978   0.11887064200351   0.25731544619807
O     0.12146035584768   0.12011214704842   0.49967358152769
O     0.13831533618321   0.13574398437668   0.73699009963285
O     0.13927982928926   0.37584034555220   0.00162792298615
O     0.12552798115158   0.37959542716904   0.25745397621152
O     0.14961580691175   0.36712271773893   0.50027907083205
O     0.13591470329496   0.37882689128085   0.75631982984729
O     0.10075804226391   0.63142806101188   0.00033848557664
O     0.12466943186288   0.62027898516584   0.24505499740232
O     0.12702960061784   0.62168521456415   0.49610314824337
O     0.12343051705274   0.62658947910714   0.75272698487369
O     0.11447228059548   0.87242023574410   0.99694364424814
O     0.12644259447883   0.88060429691062   0.24973709225136
O     0.11352962698398   0.87566075123858   0.49854992255678
O     0.13194709676830   0.87190227070531   0.75823365332188
O     0.36765291488238   0.13355964718843   0.00838918074128
O     0.36690097126294   0.12355357513916   0.24134529981271
O     0.39207159980918   0.11934222610384   0.49498309003531
O     0.39344292361965   0.13432184099688   0.75056716630175
O     0.40233136703435   0.38609376572076   0.99758857439838
O     0.37411698227243   0.36850318336333   0.24481404990891
O     0.36920769271272   0.38384978706630   0.49178040325355
O     0.36027324732757   0.37257718993932   0.74314020500437
O     0.35195853080595   0.63878218978483   0.00025414179593
O     0.36699270108486   0.62049155861991   0.24857485158278
O     0.36832229826334   0.61854206541607   0.49561594642595
O     0.36910976344421   0.64130537514548   0.74683563303733
O     0.36350742043861   0.87190617127392   0.00180413229435
O     0.38282920222042   0.87343694571634   0.24403438768582
O     0.37635951161749   0.87508172661238   0.49239185868458
O     0.37505963295885   0.86535510206634   0.74758089627394
O     0.63468614218319   0.11035699580236   0.00645460581471
O     0.62758289755886   0.11951709726543   0.24659752865530
O     0.62378430238412   0.11416722107458   0.50005452028233
O     0.63774187504972   0.13245596741781   0.75770960728829
O     0.63143247790634   0.34874912448700   0.01161583996752
O     0.62158898488875   0.36862856058951   0.26469066820462
O     0.62541615858360   0.37446732483917   0.50449761075783
O     0.63132741613654   0.36346437097707   0.75795334386559
O     0.64197467690491   0.61610003198656   0.00852785368279
O     0.60934611055134   0.62511549528837   0.24921697942714
O     0.62452992992363   0.63266894764304   0.50733543619128
O     0.63824389211611   0.61078825945256   0.74978962659757
O     0.63125258753064   0.88010171417273   0.99955259025221
O     0.62656382978488   0.87563007315979   0.25273422040356
O     0.63457749509434   0.86764922470790   0.50506445091337
O     0.63191766592571   0.86609464349927   0.75857810223905
O     0.87092557583658   0.12426136431858   0.99580862930029
O     0.88475123028337   0.12533152229284   0.23412100563232
O     0.87948636620527   0.11680893335424   0.49134672732990
O     0.87888022957880   0.12385998818594   0.74940107471594
O     0.85904178753201   0.37249425088861   0.00947544307113
O     0.89930880972965   0.36649997739294   0.26116433843660
O     0.86511817864903   0.37994198850267   0.50712449197989
O     0.88118155370823   0.37989245480404   0.76037555836065
O     0.89063652160396   0.60950760358128   0.99921956951987
O     0.88895708390115   0.61851131989563   0.25168214585210
O     0.88164370193052   0.61471122337078   0.50597751193750
O     0.88072211872701   0.62084919711112   0.75206319605197
O     0.85900986327545   0.89625492429789   0.00006990001775
O     0.86901167689516   0.87382832021985   0.25626460628711
O     0.87821851982774   0.87465632338529   0.50217819019501
O     0.89033033530303   0.87903841810666   0.75089454913167
