 # cell
&SYSTEM
  ibrav = 0
  celldm(1) =       1.889726125458
  nat = 320
  ntyp = 3
/
CELL_PARAMETERS {alat}
     15.60014408000000     0.00000000000000     0.00000000000000
      0.00000000000000    15.60014408000000     0.00000000000000
      0.00000000000000     0.00000000000000    15.60014408000000
ATOMIC_SPECIES
  Sr     87.61664410490000  Sr_PSEUDO
  Ti     47.86674924516001  Ti_PSEUDO
   O     15.99940492713047   O_PSEUDO
ATOMIC_POSITIONS {crystal}
Sr    0.00592040375125   0.99163342137313   0.99781066327636
Sr    0.99143784965686   0.99644009049822   0.25398020178502
Sr    0.00406092442709   0.00385233581464   0.48475448319859
Sr    0.00860614119051   0.00699903968897   0.75192335909201
Sr    0.00587469511348   0.24890882921158   0.97999451390246
Sr    0.98381913058924   0.23778192038423   0.26256389907235
Sr    0.99398922198385   0.24022696905329   0.49832073595837
Sr    0.99981967484156   0.25678180772010   0.73838905804133
Sr    0.00691778097227   0.47852740746486   0.98728171458072
Sr    0.99624339965358   0.50165182645118   0.24744227234193
Sr    0.01141476479894   0.48824314666173   0.51433540784002
Sr    0.98741864198655   0.50187030146888   0.74035738801710
Sr    0.00942716278055   0.72376967083227   0.99589113430403
Sr    0.99543924701412   0.74349600364584   0.25523490394869
Sr    0.00033921667340   0.75364709529170   0.51354976154918
Sr    0.00355570179813   0.76178480477367   0.74859642779546
Sr    0.23449524235491   0.98973041736799   0.00464219141801
Sr    0.25284583520232   0.99566316615808   0.24709326843245
Sr    0.25385774332730   0.99056284610758   0.49927825719340
Sr    0.27611876490418   0.99957359563778   0.74574890352213
Sr    0.24242971882182   0.25944115555657   0.01486616795956
Sr    0.23875344548647   0.27689248833291   0.24558637328415
Sr    0.26288075183183   0.24216521244415   0.50371496423078
Sr    0.24835203662726   0.24667928883949   0.74326451255735
Sr    0.25473736195162   0.52499752964580   0.99535326739246
Sr    0.25255698828465   0.51036485273991   0.25087331622813
Sr    0.25196026218568   0.49988443560270   0.51084014177505
Sr    0.25148228501067   0.49704383869285   0.74273537532960
Sr    0.25085606631876   0.75822341012404   0.99108004303499
Sr    0.24242709391371   0.75696798351728   0.24768082288104
Sr    0.24043317838171   0.75686041829109   0.49151024671058
Sr    0.24645652213387   0.75507407442473   0.75476875692931
Sr    0.50153348606697   0.99107114860053   0.02286942211399
Sr    0.49282505445627   0.98883971456810   0.24515390565945
Sr    0.49283138088761   0.99422803344339   0.49299956546800
Sr    0.51524900310364   0.99907021973146   0.76109176172533
Sr    0.50736510372010   0.24380950614634   0.00111911521212
Sr    0.48671510185527   0.23223632608690   0.25710162485551
Sr    0.49452103348973   0.23635463263484   0.50221547532959
Sr    0.50326802217478   0.26844663312769   0.74676156727607
Sr    0.49486263197158   0.49772467527204   0.99607450846275
Sr    0.48607745194983   0.51742638926634   0.25710883181395
Sr    0.49435545430481   0.51787218207897   0.50186355500476
Sr    0.49891740677194   0.49780742423115   0.73438084489846
Sr    0.49250914179576   0.75519569940911   0.00179185245758
Sr    0.51128451421571   0.75000363945446   0.23509722990354
Sr    0.50165605100960   0.75419149383842   0.50048149597550
Sr    0.47899884894485   0.74233428052984   0.75406475138370
Sr    0.76139258840213   0.00381878218668   0.97947611865496
Sr    0.76093278579695   0.00136865216409   0.25964527803604
Sr    0.74934724975807   0.99732643837058   0.49751708590480
Sr    0.75878425154865   0.01376082520902   0.74627061065080
Sr    0.77113487626290   0.23626566774346   0.98561368225723
Sr    0.74205932767409   0.22128945031780   0.24660381412814
Sr    0.76102292023673   0.25169566963672   0.50012859370531
Sr    0.74167581156978   0.24701704005816   0.74077640559454
Sr    0.73592080355234   0.49312030708939   0.00589885541495
Sr    0.74164928448073   0.50690429342572   0.26410587742865
Sr    0.75674399054936   0.50483355668958   0.48375212801149
Sr    0.74398179854656   0.50394409637540   0.73512712694308
Sr    0.73247913992957   0.74752600695075   0.00396249484467
Sr    0.75928722948930   0.75077817188266   0.25147800668154
Sr    0.75039992243016   0.75151677310037   0.49588626513457
Sr    0.75827026858503   0.76605125302564   0.76567114493918
Ti    0.12952411689694   0.12336162655684   0.12946331852327
Ti    0.12568351267127   0.11265085576848   0.38743530141215
Ti    0.12049009470288   0.12590930998545   0.61807788353523
Ti    0.11931496686679   0.12082193762914   0.88128922141262
Ti    0.12439094434574   0.37679928474332   0.13068446439315
Ti    0.11619362667510   0.36930786542865   0.38885095720256
Ti    0.12698660555480   0.37899231362439   0.62113006041969
Ti    0.13983578039640   0.37863589238228   0.87933526389220
Ti    0.13178703337952   0.61543389097238   0.12272159667111
Ti    0.13072848433278   0.63105391637721   0.36841882639117
Ti    0.12640152476443   0.61752550021167   0.63213653508776
Ti    0.11533857592910   0.61785598797838   0.87527063611627
Ti    0.12641761885741   0.86799045064372   0.12097323032888
Ti    0.12787226687010   0.85976283654451   0.36691050570993
Ti    0.13257353238826   0.88349833800391   0.62913212348024
Ti    0.14272260422120   0.86310836447223   0.87441601046586
Ti    0.37722189576750   0.12818996990680   0.14111485210542
Ti    0.36793041607967   0.12164728067247   0.35872049574973
Ti    0.37877343259465   0.12771271733256   0.63778144479796
Ti    0.38761575440789   0.13308878521436   0.87347913552123
Ti    0.35840716771248   0.37107082728035   0.11963843600791
Ti    0.35113224684642   0.38182022418784   0.36690379692890
Ti    0.36753932890107   0.38402784191239   0.62294196755016
Ti    0.37853974686151   0.37707081334755   0.87547531396974
Ti    0.37930667562372   0.62486960809933   0.12426261698028
Ti    0.38249516975813   0.63559791769192   0.37160369940384
Ti    0.36011332341427   0.63273268356977   0.61601878625411
Ti    0.35720629133051   0.62645703782137   0.87865086398355
Ti    0.35741369281550   0.89289106551657   0.13126664987522
Ti    0.37195676706954   0.87670598209270   0.37141469550620
Ti    0.37077248598131   0.87201479048557   0.63824933340829
Ti    0.37018827959385   0.88188279016770   0.89301699614434
Ti    0.61919091455140   0.12687624590105   0.11130283689264
Ti    0.63364644432452   0.13476246323532   0.37404841492744
Ti    0.63813370441479   0.13547525094940   0.62518634149075
Ti    0.63245335631693   0.11763699026341   0.87651098243293
Ti    0.62898517149553   0.37763002590340   0.12662270082558
Ti    0.61782293330181   0.36411734204061   0.37843429496832
Ti    0.62652274279386   0.38162929796109   0.61877357594078
Ti    0.63140580421053   0.37458163627481   0.87663732801899
Ti    0.61764155368600   0.63302082546740   0.13877729010713
Ti    0.62850349922424   0.62858242879673   0.38567774803469
Ti    0.62918719066128   0.63739483494943   0.64042786730710
Ti    0.61867417987391   0.62377465007927   0.87919822719900
Ti    0.62323391115841   0.86546822423815   0.12137390866055
Ti    0.64405724002089   0.87851661351534   0.37780505401642
Ti    0.64169294611873   0.88870459567268   0.63361406890689
Ti    0.62147600397471   0.86671555084319   0.88749643511760
Ti    0.87717867752644   0.12393644149926   0.11794819455981
Ti    0.87252364464109   0.12500189957917   0.36674599402545
Ti    0.87935070629706   0.12500009133406   0.61861429934998
Ti    0.87756159080884   0.12487032672244   0.87198325143253
Ti    0.87816116041017   0.36800288958973   0.12579407805236
Ti    0.86234866599441   0.37682168035490   0.37319767250095
Ti    0.87065768000067   0.36490383718648   0.63558209334615
Ti    0.87679319262164   0.37483327761300   0.87004314410095
Ti    0.87082403836047   0.61172496323476   0.11791967312284
Ti    0.88334375626478   0.62255384958688   0.38539077558994
Ti    0.87533597064951   0.62897883650047   0.62784618258777
Ti    0.86674897576433   0.62384089799789   0.87502617267566
Ti    0.87973729595560   0.85967470784780   0.12784947591073
Ti    0.87157252921595   0.87384523843484   0.37742155038616
Ti    0.87332414959510   0.88220959524386   0.60375056687168
Ti    0.88450070136615   0.87400626141759   0.87047670603402
O     0.00150844859052   0.12957413480058   0.12244283760991
O     0.01109463227593   0.11702976242601   0.39853713257780
O     0.99620687710613   0.11436243969387   0.62449948750058
O     0.99969082717306   0.09841711840722   0.87612150163580
O     0.01047957288101   0.35633834720278   0.13646188371404
O     0.98855748655053   0.38332681921036   0.38878275353593
O     0.99700045299142   0.37953072729060   0.61644624471882
O     0.00270080127090   0.35000264202605   0.86597679650769
O     0.99446833938691   0.60736239437070   0.11502614043313
O     0.00227316111038   0.62034126938401   0.37636862684518
O     0.00164701272012   0.62248552769359   0.62600588812434
O     0.99028090540674   0.61212955588925   0.87490412088411
O     0.99940734573603   0.86415106866400   0.12059121179604
O     0.00653689722999   0.87041005899465   0.38850446876602
O     0.00810268294845   0.87871961283993   0.63369218234799
O     0.01630141709230   0.86230510303803   0.88172998346765
O     0.25791380447161   0.13306601078660   0.11980181171270
O     0.24508929689039   0.12756958331536   0.38671730900475
O     0.24554626543186   0.12467374934435   0.61688517828543
O     0.25286620253222   0.12416585194943   0.90009848209688
O     0.24250586700546   0.38696722347555   0.12414127374335
O     0.24953305132627   0.39262317205724   0.40024409847766
O     0.25364834325816   0.38411311781857   0.62580813625551
O     0.25031652943763   0.38319472759969   0.88821980898033
O     0.25851090333898   0.63171572588828   0.12131406961136
O     0.26013787825404   0.63632149413105   0.38927711967064
O     0.24952010842138   0.62821599333789   0.61123756095448
O     0.25258008668143   0.62033022484640   0.86807026425706
O     0.24353219966742   0.87061495666974   0.12753619443090
O     0.24844114436974   0.86956185558505   0.37274576969200
O     0.25261416151873   0.87954851628628   0.61840505271588
O     0.25502601324394   0.88722882688194   0.90304172038619
O     0.50493992678484   0.13343993062435   0.12963809472643
O     0.49205316713401   0.11482589285231   0.37179269071796
O     0.49529330095277   0.13482784740332   0.61796407828639
O     0.51381026677975   0.11018188846800   0.88787400912824
O     0.49355768023960   0.36171198062464   0.11696049757107
O     0.48143332129928   0.38408862731497   0.36870054927338
O     0.49391786713420   0.36491753270030   0.63128659496854
O     0.50791289015859   0.36155601238988   0.84931294845333
O     0.48829573366450   0.63949200153166   0.12227907720382
O     0.50868764161121   0.62956192933108   0.38391371013118
O     0.50876714031835   0.63503843063097   0.63205233326695
O     0.50375361549659   0.61384111102265   0.87426964832123
O     0.50069357533520   0.88530741249391   0.12242693969014
O     0.51171107296920   0.87389000679629   0.37204344050277
O     0.50208687950854   0.89856559252865   0.62840931982267
O     0.50541050260443   0.88614172395463   0.87556904628877
O     0.73665239404827   0.11576230985875   0.11023126137572
O     0.75770147877604   0.13025535001507   0.38261278084890
O     0.76469190652535   0.12064259098567   0.62081943371425
O     0.76242943436706   0.11461173828435   0.87276005350552
O     0.75946640619932   0.35775339957234   0.13686586684008
O     0.73880699043996   0.37491288752443   0.36773470223487
O     0.75029197626672   0.36967354166444   0.61800354312144
O     0.75303162374670   0.36602707837242   0.85940817173813
O     0.73622767328950   0.62979250870130   0.11239931242642
O     0.76660087099050   0.63947717893734   0.38150883420285
O     0.74997073004330   0.63608673165133   0.61492080507654
O     0.74510366210923   0.61377123718158   0.87854342478033
O     0.74688513105542   0.87113716654904   0.12546764669174
O     0.75334052141788   0.87702673507629   0.38491214353397
O     0.76503222414184   0.86662194544369   0.63202467755556
O     0.76678468012558   0.89236875855830   0.86816881451958
O     0.10788947632771   0.00545047368208   0.12321546824064
O     0.11187042551463   0.98338784970847   0.37201662135342
O     0.12677908245671   0.00799088074482   0.64840640407447
O     0.13930455463945   0.98140159396415   0.89856543551988
O     0.10837154889046   0.25534996385779   0.14224448972347
O     0.11318416207031   0.25309906519554   0.38135164612479
O     0.12361522770486   0.25113885358828   0.60257862339058
O     0.13010172228246   0.24398712664296   0.87028409136205
O     0.12171424926297   0.49285003486265   0.11059897643712
O     0.13957475196519   0.49976914117877   0.39398837228799
O     0.12778803804759   0.49797260237525   0.62304938740634
O     0.11181922523065   0.49372057097773   0.87717247751071
O     0.12271456565099   0.74203407014774   0.12980256238748
O     0.11897979952430   0.75286823226188   0.37614384264950
O     0.11223920472765   0.75932211827427   0.62807989484947
O     0.12847702092135   0.74603305028487   0.87773484268232
O     0.36550313534867   0.01024621081197   0.13898440883755
O     0.36761194542013   0.00068494121534   0.36735716284737
O     0.37543617089615   0.00723300269114   0.64183392331404
O     0.39354897487169   0.00713091196964   0.88692977181754
O     0.36339711274942   0.25497536058174   0.12319591921769
O     0.35067313397752   0.24727380022898   0.38156388335636
O     0.38328879430222   0.25600603616640   0.61261872980752
O     0.40250873722048   0.25332315388742   0.88488374136155
O     0.36915133148734   0.49244699086230   0.12763344412211
O     0.35976272382159   0.50164356781375   0.39282634568756
O     0.38022291937642   0.51299889883387   0.64733186729680
O     0.36641111962175   0.49523058237508   0.88935624373224
O     0.36614682149884   0.76224152776945   0.13046692223835
O     0.38752021800613   0.75959398269155   0.37050607903356
O     0.37266497811471   0.75849388436369   0.63995086552118
O     0.38373149900477   0.75653560274071   0.87735038879962
O     0.62358628049496   0.00169145048363   0.12145130982240
O     0.62140252221234   0.01570804491874   0.37681784678518
O     0.62404626489044   0.01734127571896   0.61292558300300
O     0.64083824583084   0.99286845741569   0.87900286902316
O     0.62612971098790   0.25189468634597   0.11576815585236
O     0.60692572425690   0.24618365569720   0.37566062630825
O     0.62063597630581   0.26183027529859   0.61661041986010
O     0.62175823864491   0.24369976441121   0.87762615192225
O     0.61366284179372   0.51047692956195   0.12189745160106
O     0.61848468195242   0.49674758470436   0.37108809150780
O     0.63448379169420   0.51127857643351   0.60969383755835
O     0.63043298590612   0.49650948347506   0.88329603252095
O     0.61494360071210   0.74000401974271   0.12591545764086
O     0.63428757296354   0.75636114243190   0.38625189998973
O     0.63140727164226   0.76107005780904   0.62909082375824
O     0.63754214449063   0.75607002318489   0.88199641435796
O     0.86865537902648   0.98818602504400   0.12254322379130
O     0.86939821860853   0.00311534022088   0.37109625849673
O     0.88130015421204   0.99089196278090   0.61705808207364
O     0.89195428015368   0.99862461794689   0.86964237856978
O     0.87171262320056   0.24959631101122   0.11413524396428
O     0.87651319241542   0.24891485755466   0.36038316695365
O     0.86606507074881   0.24562513827901   0.62385751986268
O     0.88068523169969   0.23887921228110   0.85490302470514
O     0.87034757462262   0.49776797583072   0.11501748170384
O     0.88226936111746   0.49563559018159   0.39210203673823
O     0.88205955931468   0.48419446415491   0.61418368157179
O     0.86427633019124   0.49327697229959   0.87654787306973
O     0.87400715396788   0.74248548315157   0.12354271854785
O     0.87191318612905   0.74545406863551   0.36559560212002
O     0.89049028409477   0.76256522296728   0.62877548268136
O     0.87545332806846   0.74165820218408   0.86433524621086
O     0.12659559715568   0.14085324544851   0.99632296064209
O     0.14272105412164   0.13216380526729   0.25015787269316
O     0.13409237017432   0.14270402570503   0.49699504475810
O     0.12785945115503   0.12889758839310   0.75243331156344
O     0.12247646031218   0.37443780916582   0.00066495375007
O     0.11770234564539   0.39421477013969   0.25699603056760
O     0.10832577770866   0.37196158127966   0.50814460818772
O     0.13471632123481   0.35875391700359   0.74605348169230
O     0.12710040436271   0.63172841793065   0.98759707187204
O     0.12786522017893   0.63182773791495   0.23889608982630
O     0.11639103709502   0.64237990280848   0.49592643817210
O     0.12106541490595   0.63053463469288   0.75630716946868
O     0.13602139694435   0.87936549475337   0.00190094134209
O     0.11233764936601   0.88267634745290   0.24465814352807
O     0.12602403509570   0.87968520215690   0.50561608586835
O     0.12494001567319   0.87795118656037   0.75714346771395
O     0.37772273233540   0.13226221585038   0.00657174383474
O     0.36562817825939   0.12898365346846   0.25686299482970
O     0.36938249374040   0.12232692558278   0.51036144118704
O     0.36846102674383   0.14523984008162   0.76301911872324
O     0.39317651616080   0.39185706565851   0.00184942811600
O     0.36602217450707   0.38067981053749   0.25105875118097
O     0.37280185344677   0.38511975299666   0.50528635180705
O     0.36904430210928   0.38081958495559   0.75778457100602
O     0.37329074610201   0.62976312157134   0.98699717668318
O     0.36274839101087   0.61716168114939   0.23583520676200
O     0.38246338009058   0.63788966080805   0.49975538571366
O     0.39122694419881   0.60371071924191   0.74657596926548
O     0.37484304644891   0.89711231336939   0.01234525712749
O     0.37673878099325   0.86724662654480   0.25533801309035
O     0.36390002768440   0.87550593659049   0.50762256999658
O     0.37144366331357   0.88306597403616   0.76219901521561
O     0.61027575130695   0.09770576615831   0.99530269216475
O     0.62475109961179   0.13216531268592   0.25353631717038
O     0.64541199652508   0.12192465044697   0.49326217005602
O     0.61469946494974   0.12269793086246   0.74501239097758
O     0.62760630999250   0.37276462621260   0.00512511925595
O     0.62114331755715   0.38506487518150   0.25354550176081
O     0.59675911498206   0.37948904617036   0.49602019254369
O     0.63165227799584   0.36588244893315   0.74814946365548
O     0.61995297335113   0.62547379635286   0.99687510179944
O     0.63845426801479   0.62858082745788   0.26540074193323
O     0.65078424637632   0.62416483615431   0.50896439668096
O     0.63018890415812   0.61569699510671   0.75669575877183
O     0.63435566434811   0.88301666074644   0.99318555580911
O     0.62880102571807   0.86823412981035   0.25081559772840
O     0.61903594768780   0.88148537569834   0.50107297696508
O     0.64433440046886   0.86754406729662   0.76357990349954
O     0.87874283133134   0.12199881663722   0.98997247835827
O     0.87024250062451   0.12529694773696   0.23785631394102
O     0.86533987875401   0.11689436223994   0.49231006563113
O     0.87589352964304   0.12492863117498   0.74617490746352
O     0.88799950259235   0.37378966991638   0.99256534564340
O     0.86767037617900   0.38388712193596   0.24521587829444
O     0.88201265235942   0.37721949512114   0.49764055503485
O     0.87068384989855   0.37636198231302   0.75328298243861
O     0.85118122944628   0.61178142402055   0.99718000937095
O     0.87458065922784   0.61341820356686   0.24601521515842
O     0.88134899334065   0.64961735502956   0.50017906627039
O     0.86045564742280   0.61262363513380   0.76012138346360
O     0.88406617468921   0.86761389277248   0.00573712422735
O     0.88064924744384   0.85576552810497   0.25891973214162
O     0.88186487376205   0.88817884198366   0.49403767709014
O     0.88174215095004   0.86629758484931   0.74620911304132
