 # cell
&SYSTEM
  ibrav = 0
  celldm(1) =       1.889726125458
  nat = 320
  ntyp = 3
/
CELL_PARAMETERS {alat}
     15.60014408000000     0.00000000000000     0.00000000000000
      0.00000000000000    15.60014408000000     0.00000000000000
      0.00000000000000     0.00000000000000    15.60014408000000
ATOMIC_SPECIES
  Sr     87.61664410490000  Sr_PSEUDO
  Ti     47.86674924516001  Ti_PSEUDO
   O     15.99940492713047   O_PSEUDO
ATOMIC_POSITIONS {crystal}
Sr    0.99685658977270   0.00398877310640   0.99026011577815
Sr    0.01017709716798   0.00940331856268   0.25473481727011
Sr    0.99664273928804   0.01118920600345   0.48863406887893
Sr    0.00476236761609   0.00286989001377   0.75725940142120
Sr    0.97474948404639   0.24509102885634   0.01059106327047
Sr    0.98699076491974   0.25837736220298   0.24015098941749
Sr    0.03445691543722   0.25238420862807   0.48778511500735
Sr    0.98877222735357   0.25032927652340   0.72263691795851
Sr    0.00129093103851   0.50961127888154   0.00422513009644
Sr    0.01674807475937   0.48618615847088   0.25063597730285
Sr    0.99690854490283   0.50968215273073   0.48718894245299
Sr    0.99558308359955   0.50932637134785   0.74959803072394
Sr    0.99385631181979   0.73835835972609   0.01621848751013
Sr    0.99496745799562   0.75344713819162   0.26173150184130
Sr    0.99464861326302   0.75492012515354   0.51306350518436
Sr    0.00324969047093   0.75614403731763   0.75202087076161
Sr    0.25683624104402   0.00212140671647   0.01022877795079
Sr    0.24375824198962   0.00237147005569   0.24903133677463
Sr    0.25673593795921   0.02070479837204   0.49660254018807
Sr    0.24367727790708   0.98837665038992   0.75689548221593
Sr    0.26156369757554   0.24059740891592   0.00538018143928
Sr    0.24727949375068   0.24448797299829   0.23207020369687
Sr    0.23465708438432   0.25452127810360   0.48997502861248
Sr    0.24234337067064   0.24616415647948   0.74773186360324
Sr    0.25524512100054   0.49652736653317   0.00485320336112
Sr    0.24264064424373   0.50124381457657   0.24720625708695
Sr    0.24851222292821   0.51521890334999   0.49981063587577
Sr    0.24317068944752   0.50862234426233   0.75265816935135
Sr    0.25037876759265   0.75550331023576   0.99248984691950
Sr    0.25462406367479   0.75092652582479   0.23310998371380
Sr    0.24609422150325   0.74509470977856   0.49577076720266
Sr    0.24971654677294   0.74392138244828   0.76476141017734
Sr    0.50881814775270   0.99947554500663   0.99984467794491
Sr    0.51543736265381   0.99111372029159   0.26125121222242
Sr    0.50717289685795   0.98514110734645   0.49963028880841
Sr    0.51126369768549   0.01492758636393   0.74481546750287
Sr    0.49882933818812   0.26401204979738   0.01331587568326
Sr    0.49177587613024   0.23985726946587   0.24840213305992
Sr    0.49704668886531   0.25451498078626   0.50803659946750
Sr    0.50092607745720   0.23908027299051   0.74133182410187
Sr    0.50581817166298   0.49363710540782   0.02984788541713
Sr    0.50929552167469   0.48439480820238   0.25544857969842
Sr    0.50775962581761   0.50871400056745   0.49662804451579
Sr    0.50540563806087   0.49272460359091   0.75474043110643
Sr    0.50292396898914   0.75242386766144   0.00805481466332
Sr    0.50071408281921   0.76802191922604   0.23834652203134
Sr    0.49262192741396   0.74498501970583   0.49769058915587
Sr    0.49048370155116   0.73852438580125   0.73632011785730
Sr    0.74378674781140   0.99230863590368   0.99814070815899
Sr    0.74040934663579   0.01021882557020   0.25696164688772
Sr    0.73933393990827   0.01206287966984   0.49922823396379
Sr    0.74386008532547   0.00695299132996   0.73211069916863
Sr    0.74458069969333   0.24379681841519   0.98068580895430
Sr    0.76119883672008   0.25364666456243   0.23836973474801
Sr    0.74081945531269   0.25192481417656   0.50220005831711
Sr    0.74273781538073   0.23696118102756   0.74818910393712
Sr    0.74946510490121   0.49425340970483   0.98474221198024
Sr    0.74149307533062   0.50936925389718   0.25585355666190
Sr    0.75451130435970   0.50950286074653   0.49285843441442
Sr    0.74648496203034   0.50563995429168   0.74820689042769
Sr    0.75251241728504   0.75236580455681   0.00827242687305
Sr    0.75180784524010   0.72445395678143   0.25035496350084
Sr    0.74567184717620   0.75458493169858   0.50502336008735
Sr    0.74894945162217   0.74913028334913   0.75552705437072
Ti    0.13496153098875   0.11318988595719   0.11758826614111
Ti    0.11118696347453   0.12058971663739   0.37736605938013
Ti    0.11587001180602   0.12970854000938   0.62529402002474
Ti    0.12873720734907   0.12690047471976   0.85918716877485
Ti    0.12003644704568   0.36721874839140   0.13152277660601
Ti    0.12173452503832   0.38352431666123   0.37673790512979
Ti    0.12189843676577   0.37888882855828   0.62229536496577
Ti    0.12779956651876   0.38878198082592   0.87465780499155
Ti    0.13284831622683   0.61869602452258   0.15237540101025
Ti    0.12650133646536   0.62211812115062   0.38907376935699
Ti    0.12676630220614   0.63824872958473   0.62969722887076
Ti    0.14925372959918   0.63220599389838   0.88802115699793
Ti    0.12642516021485   0.86885654872455   0.13893143773199
Ti    0.13494066910125   0.88290541104643   0.38379631415107
Ti    0.11334021019309   0.87551960789476   0.62689179182641
Ti    0.12362642231825   0.87572449052992   0.88702864881286
Ti    0.38301859912415   0.11987507629231   0.12300045566798
Ti    0.35389875083474   0.12484614093808   0.37232613682997
Ti    0.37536229885253   0.11890611684275   0.61323442141444
Ti    0.38428128127032   0.11855481165200   0.85929061055563
Ti    0.37092100328571   0.37323955739997   0.11716571389833
Ti    0.35849513431573   0.37570837837028   0.36831645733738
Ti    0.37968099861596   0.36679431450305   0.63182668896990
Ti    0.37840558222233   0.36394062660147   0.88040441095653
Ti    0.38798632864951   0.61199155608114   0.11366292571296
Ti    0.38520340284342   0.63843901588398   0.37273192157024
Ti    0.37155259577406   0.61838563389552   0.63477387430908
Ti    0.38087839055830   0.63029197823593   0.88670835460845
Ti    0.37637761508743   0.86183712017056   0.12326594986329
Ti    0.37075439889961   0.88615143709964   0.37632139396433
Ti    0.37498174446990   0.87437416676056   0.62838785274070
Ti    0.38563526051742   0.87672756948202   0.86927088145683
Ti    0.62521331218926   0.12623436362536   0.11858478765446
Ti    0.62378800577219   0.13313247061806   0.37450749191904
Ti    0.63838648913995   0.12180020608415   0.62380483715440
Ti    0.62358196197308   0.12068573835733   0.87965984744219
Ti    0.62648673757354   0.38634528188809   0.12385444735313
Ti    0.62303509258970   0.36543086006305   0.38029094347451
Ti    0.62886701828385   0.37450470602993   0.62119585340468
Ti    0.62882157559143   0.36291102470691   0.87522052345499
Ti    0.63483022530662   0.62374586301074   0.12112836572504
Ti    0.61748895731552   0.62029645621288   0.37475201580174
Ti    0.61947676534104   0.62090209818637   0.61988369846846
Ti    0.61918963616785   0.62008668983753   0.87108023266688
Ti    0.62110436606238   0.87701831110120   0.12705700253921
Ti    0.62395511969262   0.87070311162694   0.38173920714054
Ti    0.63749936344493   0.87407576520361   0.63067581525915
Ti    0.64149405911998   0.87329623812133   0.88689082902521
Ti    0.88564497443609   0.13415117587377   0.12201838767957
Ti    0.86304301054818   0.11912241337255   0.38321859601351
Ti    0.87436976638917   0.12948896718255   0.63751490448360
Ti    0.87319234263716   0.11597466460727   0.86798458275722
Ti    0.85956502414423   0.38181636663003   0.12284578915715
Ti    0.87126073494891   0.38133883962029   0.36580988088461
Ti    0.86752782305365   0.37665067930590   0.62397488210744
Ti    0.87327896958218   0.36369079951774   0.87972024608303
Ti    0.88039778600053   0.63692388522419   0.12551822456694
Ti    0.87679281898888   0.62407384207705   0.36521048660919
Ti    0.87167343201236   0.61612867344305   0.62904525315661
Ti    0.86306430414646   0.61693585310796   0.88071757372309
Ti    0.87780251620943   0.89132506289083   0.13851072011283
Ti    0.86841798814017   0.87846282268215   0.37784258524995
Ti    0.87210260407314   0.88044703553565   0.62941017960970
Ti    0.87760992710147   0.86967316323868   0.88369257033970
O     0.99987125060261   0.12896254286292   0.11991330599535
O     0.00191576266017   0.14401864358740   0.37428686923952
O     0.99363053542414   0.12057834663384   0.62607623269129
O     0.00412246245427   0.13066915421495   0.85079761863533
O     0.99294379263192   0.36961499612247   0.11506375547999
O     0.00221930536261   0.37240367797766   0.36928219632750
O     0.01010957260820   0.36234472820674   0.62186851654377
O     0.00638901940392   0.38082398112226   0.87811494756647
O     0.00737098968280   0.62067555342862   0.14156440553097
O     0.00374924808748   0.63386730379862   0.36715936687620
O     0.00911204436190   0.63759704496499   0.62418320757021
O     0.00083705273196   0.61863283594651   0.86195685674621
O     0.99510655448498   0.88802341646492   0.13276065297445
O     0.99983344524429   0.85923622397201   0.36545207280856
O     0.99468210750418   0.88511953074573   0.61743877733999
O     0.00379755570527   0.88085070534535   0.89941954413363
O     0.25885532824921   0.12641042950572   0.11399482960193
O     0.24970538101000   0.11968487301702   0.38233888099598
O     0.24052611327998   0.12513036652454   0.62457986885903
O     0.24479206297912   0.11774026933596   0.87917605933512
O     0.24284816143450   0.37231468991872   0.12871588095411
O     0.22913025544685   0.38019950615644   0.37602849761269
O     0.23878815192735   0.37444866066713   0.62630083753408
O     0.25181958806527   0.36689855758334   0.86451256466022
O     0.25833511708914   0.63256504315393   0.10706025779106
O     0.26972805031204   0.62929606467526   0.35317175541701
O     0.23877439186384   0.62769626771742   0.63023204837067
O     0.25990682397178   0.61906159382335   0.86307837571801
O     0.25901016433768   0.87094228416049   0.12474649575124
O     0.24886230833369   0.87226489252051   0.38535646337440
O     0.25054797817959   0.88127665267190   0.62320942697809
O     0.25572051068728   0.87051966805447   0.88510590664685
O     0.50677837657982   0.10226070495985   0.11287081566690
O     0.49277182427415   0.13931524235513   0.37695465405410
O     0.50822070144685   0.11860588690340   0.61440463917345
O     0.50898475589771   0.13231506451671   0.86706974922333
O     0.49959735656052   0.36688413397867   0.13414300292793
O     0.50472542570744   0.37762281676845   0.37953840139562
O     0.50374985580509   0.37653159412169   0.63625077161707
O     0.50343817953406   0.37071852594653   0.86551712878374
O     0.51027426033969   0.60437811809605   0.13374229894565
O     0.49805647170400   0.63346776519991   0.35994939668844
O     0.49651858097266   0.63388956666746   0.63489562758743
O     0.50292901802272   0.62015147302262   0.91068533688107
O     0.49625795824257   0.87924219744772   0.10983054311750
O     0.48551493056971   0.88381254349205   0.39102343335522
O     0.50737014733716   0.87140515456613   0.61883645342644
O     0.51241516128392   0.85664445218841   0.86768704837539
O     0.75904109106691   0.13670004855324   0.12050296935633
O     0.74865030063878   0.11725306084269   0.38363887313547
O     0.74871413645120   0.11979026014470   0.62944581554036
O     0.73919219153408   0.11291504455460   0.84906936566714
O     0.73619655346127   0.37207235795069   0.13957044199300
O     0.75338757262490   0.36340627399274   0.38498544959296
O     0.74369486313516   0.38044658503868   0.62029534165962
O     0.74622223268493   0.35674417639598   0.86359287269037
O     0.75126026950235   0.61389216657750   0.12444119125098
O     0.74720477679426   0.63506698725355   0.37729244332963
O     0.75512709167338   0.62366590521796   0.62479053878751
O     0.74134658148127   0.62133710189247   0.88341869059675
O     0.75567941238690   0.87188765054027   0.12884723227427
O     0.73893982295764   0.87635023109392   0.36408892087488
O     0.75189138252224   0.87427998466516   0.63227560444937
O     0.75658414796113   0.87511326754258   0.87415960583083
O     0.11008011440559   0.99601920064159   0.11291788444936
O     0.12631397301707   0.00071604040551   0.37957034059328
O     0.13532088199972   0.99362169937818   0.62451361895858
O     0.12374961137796   0.00592931320535   0.88285554328687
O     0.10537082131252   0.23588621310079   0.12694908254733
O     0.11564227696957   0.25709353584835   0.34502469812565
O     0.13151625089439   0.25235724605362   0.62652896930260
O     0.12406623377327   0.26110412257578   0.87679795158207
O     0.11615823040268   0.49755784992348   0.13167561632252
O     0.12762348931050   0.50697267806796   0.37576975289815
O     0.11959027005239   0.49208087253483   0.63095216222367
O     0.13075858515890   0.49830717545267   0.88524598952870
O     0.11267577465321   0.75111447079108   0.12697433875436
O     0.11598434646047   0.74420895762400   0.38277636848023
O     0.13233942350316   0.75354622267430   0.62528859609898
O     0.11842428073154   0.74610009748663   0.87454015593387
O     0.36932579198029   0.98852549251813   0.13192098581691
O     0.37562683928796   0.01980527666019   0.36907825247464
O     0.38003135654898   0.00313248482800   0.64198492462872
O     0.38597979655105   0.00436081987661   0.87483596231579
O     0.39186907584938   0.24277628154758   0.12357911291710
O     0.36608299514620   0.24784198856488   0.36180408912280
O     0.36801104718068   0.24981267895202   0.62461064959440
O     0.38120955740559   0.23798358209777   0.87721740423901
O     0.39223019517625   0.48471068913832   0.11932411866701
O     0.37242468804037   0.50359642972606   0.35913000386916
O     0.37124076349903   0.49547426115701   0.62790281937361
O     0.37258196795030   0.50112557410893   0.87835023868495
O     0.39395046717654   0.73847635560898   0.12122418713063
O     0.38502628899932   0.75687296097924   0.36823446770836
O     0.37782038861032   0.75686588694523   0.62912140323065
O     0.37193971739834   0.74776560689847   0.87418340914785
O     0.63669725735578   0.99475412272409   0.11950524074634
O     0.60864935027704   0.00177206753909   0.37406808415571
O     0.63342945177318   0.00417483465758   0.62154110120191
O     0.62848743500179   0.99291506035690   0.88633045560477
O     0.62747574241936   0.25627417185906   0.13721191742036
O     0.62022327258847   0.24541497101970   0.37049358127612
O     0.61825734438148   0.24269487983167   0.62926352483225
O     0.61022730043883   0.23367364020225   0.88018959087819
O     0.63574768581501   0.50108493924315   0.11989721335038
O     0.62588450809213   0.50482459407293   0.37498060403619
O     0.63349149230812   0.49361870681232   0.63006657492416
O     0.61783936196665   0.49104156992570   0.88390486156600
O     0.64011593389202   0.74830218525181   0.11961233588697
O     0.61184455642776   0.75364043171060   0.37604484835251
O     0.63931011725895   0.74847389557267   0.62052970309380
O     0.64186223574610   0.75444002803331   0.88162449539171
O     0.87536409451787   0.01632282672508   0.13501773147005
O     0.88159079591403   0.99957582202901   0.36167625165361
O     0.86865955591913   0.00045104356468   0.61669964306682
O     0.87074710701376   0.99565702248183   0.87567358127001
O     0.88719780801846   0.25113100913940   0.12529737711056
O     0.89410236620610   0.24240565842785   0.37892237893799
O     0.86499542390105   0.25681387735388   0.63633456265404
O     0.87571433059523   0.24094264789874   0.86471823637049
O     0.89404142694225   0.50124279529984   0.12802449157774
O     0.87400031522950   0.50519449575306   0.34985524040971
O     0.89130688791796   0.50049481992187   0.61225835417293
O     0.87101979296571   0.49407439316584   0.88060634138553
O     0.87504253977195   0.75859425637070   0.13030584688181
O     0.86010086783247   0.74793275973617   0.37407873925057
O     0.86957174844685   0.74736944117090   0.63755714267130
O     0.89800284748944   0.73955127601998   0.89081965331155
O     0.10617271076221   0.13118417219000   0.99732628413801
O     0.13130659755953   0.13108387944849   0.23711287470394
O     0.14790109991364   0.13276932705372   0.50252781688799
O     0.12620821981640   0.12161075196668   0.74170693145295
O     0.13906783736378   0.37350535619672   0.00478554970942
O     0.13698416270332   0.35343338002059   0.24717218377564
O     0.11828664883140   0.39271285420210   0.49175148432970
O     0.12117632483664   0.38303915828520   0.74726654965825
O     0.12178018934393   0.62002388146447   0.02209791851807
O     0.13162535133130   0.62530609248778   0.27234160604194
O     0.13509219271912   0.60493355707391   0.51041071737764
O     0.11618534411014   0.63606267734395   0.76294743785546
O     0.12457302359304   0.88628431172091   0.00757013105414
O     0.13128052495938   0.86274609557940   0.26394425778324
O     0.12843483922654   0.88178236712824   0.49944068917276
O     0.13910814278224   0.87332625709727   0.76753379429237
O     0.37870313560060   0.11251759339978   0.99043611740369
O     0.38147957014162   0.12235897571934   0.23758559880320
O     0.36657940821623   0.13398742681215   0.48541553090591
O     0.38677718170177   0.12326681932043   0.73564432531457
O     0.36130658296470   0.38168992385601   0.99359497074533
O     0.35375828958356   0.36953705485527   0.24731503363589
O     0.37243160322199   0.37209084389791   0.49045870989857
O     0.36793102167866   0.37013931730199   0.74957456628514
O     0.38076898411451   0.63747427634822   0.99132205818713
O     0.38062857220844   0.62230507677666   0.24437100417251
O     0.37185743291014   0.63361696315726   0.50294335086373
O     0.38344521564637   0.61652249911377   0.76763288458614
O     0.39115312919145   0.88071716470746   0.99075193522973
O     0.37794736106644   0.87381086768777   0.25100271337863
O     0.37402134930298   0.86759672849922   0.50314498041384
O     0.37871391647564   0.86940269014139   0.74964249647741
O     0.61090914465346   0.13581339250507   0.99593941169115
O     0.63483472874622   0.14211951771633   0.24538947903272
O     0.61557465987283   0.12384519038936   0.49062458589854
O     0.63587319732956   0.11641670187001   0.74934199530286
O     0.62138293469810   0.37842911191893   0.99446579237319
O     0.62192372119238   0.38632283346571   0.26140625769092
O     0.62452092841079   0.37265862823221   0.49643161664053
O     0.62150304880315   0.36945142443366   0.76023633041829
O     0.62977265190360   0.64215663143910   0.98413247944368
O     0.61424813960713   0.62248514129269   0.24515186725504
O     0.62486353443839   0.62857949942300   0.49854872310717
O     0.62257901752835   0.63447090511811   0.75299195280050
O     0.62408694696304   0.85065498351601   0.00518334385981
O     0.62155586612813   0.87778228798040   0.25106767180648
O     0.62242791765715   0.86226742483550   0.50146824380572
O     0.62086745249151   0.85445776651449   0.74586648454772
O     0.86799288223502   0.12163182689300   0.97807399561298
O     0.87022707763356   0.12236788469702   0.24185444049113
O     0.86421454370148   0.14275633462913   0.51222913267695
O     0.86785686563635   0.11032617733210   0.74249308338213
O     0.88453666635044   0.38519404978291   0.00078894640912
O     0.86144769722853   0.37846774741875   0.24825371348493
O     0.88424019041337   0.38283317911373   0.49913635915184
O     0.86344905021255   0.37342641043413   0.75794360083344
O     0.89350150191504   0.60694747015785   0.99814852224668
O     0.86685542753350   0.62205310612786   0.25006185450492
O     0.87340217821407   0.62888241448325   0.49678446672081
O     0.88317951303111   0.61874989484150   0.75708654110479
O     0.86159995690999   0.87843915902131   0.01590948313406
O     0.87196751841151   0.87112450320582   0.26019413017198
O     0.88445644913444   0.86838578102882   0.49825164398683
O     0.89807109574471   0.85296556960580   0.75662763184386
