&qe2pert
  prefix='diam'
  outdir='./tmp'
  phdir='../pw-ph-wann/phonon/save'
  nk1=4, nk2=4, nk3=4,
  dft_band_min = 1
  dft_band_max = 17
  num_wann = 16
  lwannier=.true.
  lspinmat = .true.
/
