Phonons on a uniform grid
&inputph
  verbosity='debug'
  tr2_ph=1.0d-17
  prefix='si'
  ldisp=.true.
  epsil=.true.
  lqdir=.true.
  outdir='./tmp'
  fildyn  = 'si.dyn.xml'
  fildvscf = 'dvscf'
  nq1=8, nq2=8, nq3=8,
/
