
begin projections
Al:l=0;l=1
end projections
guiding_centres=.true.

num_bands = 12
num_wann = 4

dis_froz_max = 11.5
dis_win_max = 35
dis_conv_tol = 1.0d-13
dis_mix_ratio = 0.9
dis_num_iter =  20000
num_iter  =   6000
num_print_cycles = 100

begin unit_cell_cart
bohr
 -3.8250 0.0000 3.8250
  0.0000 3.8250 3.8250
 -3.8250 3.8250 0.0000
end unit_cell_cart

begin atoms_frac
Al 0.00  0.00  0.00
end atoms_frac

write_xyz=.true.
write_u_matrices = .true.

bands_plot      =  true
bands_plot_format = gnuplot
bands_num_points = 100
begin kpoint_path
L 0.50000  0.50000 0.5000 G 0.00000  0.00000 0.0000
G 0.00000  0.00000 0.0000 X 0.50000  0.00000 0.5000
X 0.50000  0.00000 0.5000 W 0.50000  0.25000 0.7500
W 0.50000  0.25000 0.7500 K 0.37500  0.37500 0.7500
K 0.37500  0.37500 0.7500 G 0.00000  0.00000 0.0000
end kpoint_path

mp_grid : 8 8 8

begin kpoints
  0.00000000  0.00000000  0.00000000
  0.00000000  0.00000000  0.12500000
  0.00000000  0.00000000  0.25000000
  0.00000000  0.00000000  0.37500000
  0.00000000  0.00000000  0.50000000
  0.00000000  0.00000000  0.62500000
  0.00000000  0.00000000  0.75000000
  0.00000000  0.00000000  0.87500000
  0.00000000  0.12500000  0.00000000
  0.00000000  0.12500000  0.12500000
  0.00000000  0.12500000  0.25000000
  0.00000000  0.12500000  0.37500000
  0.00000000  0.12500000  0.50000000
  0.00000000  0.12500000  0.62500000
  0.00000000  0.12500000  0.75000000
  0.00000000  0.12500000  0.87500000
  0.00000000  0.25000000  0.00000000
  0.00000000  0.25000000  0.12500000
  0.00000000  0.25000000  0.25000000
  0.00000000  0.25000000  0.37500000
  0.00000000  0.25000000  0.50000000
  0.00000000  0.25000000  0.62500000
  0.00000000  0.25000000  0.75000000
  0.00000000  0.25000000  0.87500000
  0.00000000  0.37500000  0.00000000
  0.00000000  0.37500000  0.12500000
  0.00000000  0.37500000  0.25000000
  0.00000000  0.37500000  0.37500000
  0.00000000  0.37500000  0.50000000
  0.00000000  0.37500000  0.62500000
  0.00000000  0.37500000  0.75000000
  0.00000000  0.37500000  0.87500000
  0.00000000  0.50000000  0.00000000
  0.00000000  0.50000000  0.12500000
  0.00000000  0.50000000  0.25000000
  0.00000000  0.50000000  0.37500000
  0.00000000  0.50000000  0.50000000
  0.00000000  0.50000000  0.62500000
  0.00000000  0.50000000  0.75000000
  0.00000000  0.50000000  0.87500000
  0.00000000  0.62500000  0.00000000
  0.00000000  0.62500000  0.12500000
  0.00000000  0.62500000  0.25000000
  0.00000000  0.62500000  0.37500000
  0.00000000  0.62500000  0.50000000
  0.00000000  0.62500000  0.62500000
  0.00000000  0.62500000  0.75000000
  0.00000000  0.62500000  0.87500000
  0.00000000  0.75000000  0.00000000
  0.00000000  0.75000000  0.12500000
  0.00000000  0.75000000  0.25000000
  0.00000000  0.75000000  0.37500000
  0.00000000  0.75000000  0.50000000
  0.00000000  0.75000000  0.62500000
  0.00000000  0.75000000  0.75000000
  0.00000000  0.75000000  0.87500000
  0.00000000  0.87500000  0.00000000
  0.00000000  0.87500000  0.12500000
  0.00000000  0.87500000  0.25000000
  0.00000000  0.87500000  0.37500000
  0.00000000  0.87500000  0.50000000
  0.00000000  0.87500000  0.62500000
  0.00000000  0.87500000  0.75000000
  0.00000000  0.87500000  0.87500000
  0.12500000  0.00000000  0.00000000
  0.12500000  0.00000000  0.12500000
  0.12500000  0.00000000  0.25000000
  0.12500000  0.00000000  0.37500000
  0.12500000  0.00000000  0.50000000
  0.12500000  0.00000000  0.62500000
  0.12500000  0.00000000  0.75000000
  0.12500000  0.00000000  0.87500000
  0.12500000  0.12500000  0.00000000
  0.12500000  0.12500000  0.12500000
  0.12500000  0.12500000  0.25000000
  0.12500000  0.12500000  0.37500000
  0.12500000  0.12500000  0.50000000
  0.12500000  0.12500000  0.62500000
  0.12500000  0.12500000  0.75000000
  0.12500000  0.12500000  0.87500000
  0.12500000  0.25000000  0.00000000
  0.12500000  0.25000000  0.12500000
  0.12500000  0.25000000  0.25000000
  0.12500000  0.25000000  0.37500000
  0.12500000  0.25000000  0.50000000
  0.12500000  0.25000000  0.62500000
  0.12500000  0.25000000  0.75000000
  0.12500000  0.25000000  0.87500000
  0.12500000  0.37500000  0.00000000
  0.12500000  0.37500000  0.12500000
  0.12500000  0.37500000  0.25000000
  0.12500000  0.37500000  0.37500000
  0.12500000  0.37500000  0.50000000
  0.12500000  0.37500000  0.62500000
  0.12500000  0.37500000  0.75000000
  0.12500000  0.37500000  0.87500000
  0.12500000  0.50000000  0.00000000
  0.12500000  0.50000000  0.12500000
  0.12500000  0.50000000  0.25000000
  0.12500000  0.50000000  0.37500000
  0.12500000  0.50000000  0.50000000
  0.12500000  0.50000000  0.62500000
  0.12500000  0.50000000  0.75000000
  0.12500000  0.50000000  0.87500000
  0.12500000  0.62500000  0.00000000
  0.12500000  0.62500000  0.12500000
  0.12500000  0.62500000  0.25000000
  0.12500000  0.62500000  0.37500000
  0.12500000  0.62500000  0.50000000
  0.12500000  0.62500000  0.62500000
  0.12500000  0.62500000  0.75000000
  0.12500000  0.62500000  0.87500000
  0.12500000  0.75000000  0.00000000
  0.12500000  0.75000000  0.12500000
  0.12500000  0.75000000  0.25000000
  0.12500000  0.75000000  0.37500000
  0.12500000  0.75000000  0.50000000
  0.12500000  0.75000000  0.62500000
  0.12500000  0.75000000  0.75000000
  0.12500000  0.75000000  0.87500000
  0.12500000  0.87500000  0.00000000
  0.12500000  0.87500000  0.12500000
  0.12500000  0.87500000  0.25000000
  0.12500000  0.87500000  0.37500000
  0.12500000  0.87500000  0.50000000
  0.12500000  0.87500000  0.62500000
  0.12500000  0.87500000  0.75000000
  0.12500000  0.87500000  0.87500000
  0.25000000  0.00000000  0.00000000
  0.25000000  0.00000000  0.12500000
  0.25000000  0.00000000  0.25000000
  0.25000000  0.00000000  0.37500000
  0.25000000  0.00000000  0.50000000
  0.25000000  0.00000000  0.62500000
  0.25000000  0.00000000  0.75000000
  0.25000000  0.00000000  0.87500000
  0.25000000  0.12500000  0.00000000
  0.25000000  0.12500000  0.12500000
  0.25000000  0.12500000  0.25000000
  0.25000000  0.12500000  0.37500000
  0.25000000  0.12500000  0.50000000
  0.25000000  0.12500000  0.62500000
  0.25000000  0.12500000  0.75000000
  0.25000000  0.12500000  0.87500000
  0.25000000  0.25000000  0.00000000
  0.25000000  0.25000000  0.12500000
  0.25000000  0.25000000  0.25000000
  0.25000000  0.25000000  0.37500000
  0.25000000  0.25000000  0.50000000
  0.25000000  0.25000000  0.62500000
  0.25000000  0.25000000  0.75000000
  0.25000000  0.25000000  0.87500000
  0.25000000  0.37500000  0.00000000
  0.25000000  0.37500000  0.12500000
  0.25000000  0.37500000  0.25000000
  0.25000000  0.37500000  0.37500000
  0.25000000  0.37500000  0.50000000
  0.25000000  0.37500000  0.62500000
  0.25000000  0.37500000  0.75000000
  0.25000000  0.37500000  0.87500000
  0.25000000  0.50000000  0.00000000
  0.25000000  0.50000000  0.12500000
  0.25000000  0.50000000  0.25000000
  0.25000000  0.50000000  0.37500000
  0.25000000  0.50000000  0.50000000
  0.25000000  0.50000000  0.62500000
  0.25000000  0.50000000  0.75000000
  0.25000000  0.50000000  0.87500000
  0.25000000  0.62500000  0.00000000
  0.25000000  0.62500000  0.12500000
  0.25000000  0.62500000  0.25000000
  0.25000000  0.62500000  0.37500000
  0.25000000  0.62500000  0.50000000
  0.25000000  0.62500000  0.62500000
  0.25000000  0.62500000  0.75000000
  0.25000000  0.62500000  0.87500000
  0.25000000  0.75000000  0.00000000
  0.25000000  0.75000000  0.12500000
  0.25000000  0.75000000  0.25000000
  0.25000000  0.75000000  0.37500000
  0.25000000  0.75000000  0.50000000
  0.25000000  0.75000000  0.62500000
  0.25000000  0.75000000  0.75000000
  0.25000000  0.75000000  0.87500000
  0.25000000  0.87500000  0.00000000
  0.25000000  0.87500000  0.12500000
  0.25000000  0.87500000  0.25000000
  0.25000000  0.87500000  0.37500000
  0.25000000  0.87500000  0.50000000
  0.25000000  0.87500000  0.62500000
  0.25000000  0.87500000  0.75000000
  0.25000000  0.87500000  0.87500000
  0.37500000  0.00000000  0.00000000
  0.37500000  0.00000000  0.12500000
  0.37500000  0.00000000  0.25000000
  0.37500000  0.00000000  0.37500000
  0.37500000  0.00000000  0.50000000
  0.37500000  0.00000000  0.62500000
  0.37500000  0.00000000  0.75000000
  0.37500000  0.00000000  0.87500000
  0.37500000  0.12500000  0.00000000
  0.37500000  0.12500000  0.12500000
  0.37500000  0.12500000  0.25000000
  0.37500000  0.12500000  0.37500000
  0.37500000  0.12500000  0.50000000
  0.37500000  0.12500000  0.62500000
  0.37500000  0.12500000  0.75000000
  0.37500000  0.12500000  0.87500000
  0.37500000  0.25000000  0.00000000
  0.37500000  0.25000000  0.12500000
  0.37500000  0.25000000  0.25000000
  0.37500000  0.25000000  0.37500000
  0.37500000  0.25000000  0.50000000
  0.37500000  0.25000000  0.62500000
  0.37500000  0.25000000  0.75000000
  0.37500000  0.25000000  0.87500000
  0.37500000  0.37500000  0.00000000
  0.37500000  0.37500000  0.12500000
  0.37500000  0.37500000  0.25000000
  0.37500000  0.37500000  0.37500000
  0.37500000  0.37500000  0.50000000
  0.37500000  0.37500000  0.62500000
  0.37500000  0.37500000  0.75000000
  0.37500000  0.37500000  0.87500000
  0.37500000  0.50000000  0.00000000
  0.37500000  0.50000000  0.12500000
  0.37500000  0.50000000  0.25000000
  0.37500000  0.50000000  0.37500000
  0.37500000  0.50000000  0.50000000
  0.37500000  0.50000000  0.62500000
  0.37500000  0.50000000  0.75000000
  0.37500000  0.50000000  0.87500000
  0.37500000  0.62500000  0.00000000
  0.37500000  0.62500000  0.12500000
  0.37500000  0.62500000  0.25000000
  0.37500000  0.62500000  0.37500000
  0.37500000  0.62500000  0.50000000
  0.37500000  0.62500000  0.62500000
  0.37500000  0.62500000  0.75000000
  0.37500000  0.62500000  0.87500000
  0.37500000  0.75000000  0.00000000
  0.37500000  0.75000000  0.12500000
  0.37500000  0.75000000  0.25000000
  0.37500000  0.75000000  0.37500000
  0.37500000  0.75000000  0.50000000
  0.37500000  0.75000000  0.62500000
  0.37500000  0.75000000  0.75000000
  0.37500000  0.75000000  0.87500000
  0.37500000  0.87500000  0.00000000
  0.37500000  0.87500000  0.12500000
  0.37500000  0.87500000  0.25000000
  0.37500000  0.87500000  0.37500000
  0.37500000  0.87500000  0.50000000
  0.37500000  0.87500000  0.62500000
  0.37500000  0.87500000  0.75000000
  0.37500000  0.87500000  0.87500000
  0.50000000  0.00000000  0.00000000
  0.50000000  0.00000000  0.12500000
  0.50000000  0.00000000  0.25000000
  0.50000000  0.00000000  0.37500000
  0.50000000  0.00000000  0.50000000
  0.50000000  0.00000000  0.62500000
  0.50000000  0.00000000  0.75000000
  0.50000000  0.00000000  0.87500000
  0.50000000  0.12500000  0.00000000
  0.50000000  0.12500000  0.12500000
  0.50000000  0.12500000  0.25000000
  0.50000000  0.12500000  0.37500000
  0.50000000  0.12500000  0.50000000
  0.50000000  0.12500000  0.62500000
  0.50000000  0.12500000  0.75000000
  0.50000000  0.12500000  0.87500000
  0.50000000  0.25000000  0.00000000
  0.50000000  0.25000000  0.12500000
  0.50000000  0.25000000  0.25000000
  0.50000000  0.25000000  0.37500000
  0.50000000  0.25000000  0.50000000
  0.50000000  0.25000000  0.62500000
  0.50000000  0.25000000  0.75000000
  0.50000000  0.25000000  0.87500000
  0.50000000  0.37500000  0.00000000
  0.50000000  0.37500000  0.12500000
  0.50000000  0.37500000  0.25000000
  0.50000000  0.37500000  0.37500000
  0.50000000  0.37500000  0.50000000
  0.50000000  0.37500000  0.62500000
  0.50000000  0.37500000  0.75000000
  0.50000000  0.37500000  0.87500000
  0.50000000  0.50000000  0.00000000
  0.50000000  0.50000000  0.12500000
  0.50000000  0.50000000  0.25000000
  0.50000000  0.50000000  0.37500000
  0.50000000  0.50000000  0.50000000
  0.50000000  0.50000000  0.62500000
  0.50000000  0.50000000  0.75000000
  0.50000000  0.50000000  0.87500000
  0.50000000  0.62500000  0.00000000
  0.50000000  0.62500000  0.12500000
  0.50000000  0.62500000  0.25000000
  0.50000000  0.62500000  0.37500000
  0.50000000  0.62500000  0.50000000
  0.50000000  0.62500000  0.62500000
  0.50000000  0.62500000  0.75000000
  0.50000000  0.62500000  0.87500000
  0.50000000  0.75000000  0.00000000
  0.50000000  0.75000000  0.12500000
  0.50000000  0.75000000  0.25000000
  0.50000000  0.75000000  0.37500000
  0.50000000  0.75000000  0.50000000
  0.50000000  0.75000000  0.62500000
  0.50000000  0.75000000  0.75000000
  0.50000000  0.75000000  0.87500000
  0.50000000  0.87500000  0.00000000
  0.50000000  0.87500000  0.12500000
  0.50000000  0.87500000  0.25000000
  0.50000000  0.87500000  0.37500000
  0.50000000  0.87500000  0.50000000
  0.50000000  0.87500000  0.62500000
  0.50000000  0.87500000  0.75000000
  0.50000000  0.87500000  0.87500000
  0.62500000  0.00000000  0.00000000
  0.62500000  0.00000000  0.12500000
  0.62500000  0.00000000  0.25000000
  0.62500000  0.00000000  0.37500000
  0.62500000  0.00000000  0.50000000
  0.62500000  0.00000000  0.62500000
  0.62500000  0.00000000  0.75000000
  0.62500000  0.00000000  0.87500000
  0.62500000  0.12500000  0.00000000
  0.62500000  0.12500000  0.12500000
  0.62500000  0.12500000  0.25000000
  0.62500000  0.12500000  0.37500000
  0.62500000  0.12500000  0.50000000
  0.62500000  0.12500000  0.62500000
  0.62500000  0.12500000  0.75000000
  0.62500000  0.12500000  0.87500000
  0.62500000  0.25000000  0.00000000
  0.62500000  0.25000000  0.12500000
  0.62500000  0.25000000  0.25000000
  0.62500000  0.25000000  0.37500000
  0.62500000  0.25000000  0.50000000
  0.62500000  0.25000000  0.62500000
  0.62500000  0.25000000  0.75000000
  0.62500000  0.25000000  0.87500000
  0.62500000  0.37500000  0.00000000
  0.62500000  0.37500000  0.12500000
  0.62500000  0.37500000  0.25000000
  0.62500000  0.37500000  0.37500000
  0.62500000  0.37500000  0.50000000
  0.62500000  0.37500000  0.62500000
  0.62500000  0.37500000  0.75000000
  0.62500000  0.37500000  0.87500000
  0.62500000  0.50000000  0.00000000
  0.62500000  0.50000000  0.12500000
  0.62500000  0.50000000  0.25000000
  0.62500000  0.50000000  0.37500000
  0.62500000  0.50000000  0.50000000
  0.62500000  0.50000000  0.62500000
  0.62500000  0.50000000  0.75000000
  0.62500000  0.50000000  0.87500000
  0.62500000  0.62500000  0.00000000
  0.62500000  0.62500000  0.12500000
  0.62500000  0.62500000  0.25000000
  0.62500000  0.62500000  0.37500000
  0.62500000  0.62500000  0.50000000
  0.62500000  0.62500000  0.62500000
  0.62500000  0.62500000  0.75000000
  0.62500000  0.62500000  0.87500000
  0.62500000  0.75000000  0.00000000
  0.62500000  0.75000000  0.12500000
  0.62500000  0.75000000  0.25000000
  0.62500000  0.75000000  0.37500000
  0.62500000  0.75000000  0.50000000
  0.62500000  0.75000000  0.62500000
  0.62500000  0.75000000  0.75000000
  0.62500000  0.75000000  0.87500000
  0.62500000  0.87500000  0.00000000
  0.62500000  0.87500000  0.12500000
  0.62500000  0.87500000  0.25000000
  0.62500000  0.87500000  0.37500000
  0.62500000  0.87500000  0.50000000
  0.62500000  0.87500000  0.62500000
  0.62500000  0.87500000  0.75000000
  0.62500000  0.87500000  0.87500000
  0.75000000  0.00000000  0.00000000
  0.75000000  0.00000000  0.12500000
  0.75000000  0.00000000  0.25000000
  0.75000000  0.00000000  0.37500000
  0.75000000  0.00000000  0.50000000
  0.75000000  0.00000000  0.62500000
  0.75000000  0.00000000  0.75000000
  0.75000000  0.00000000  0.87500000
  0.75000000  0.12500000  0.00000000
  0.75000000  0.12500000  0.12500000
  0.75000000  0.12500000  0.25000000
  0.75000000  0.12500000  0.37500000
  0.75000000  0.12500000  0.50000000
  0.75000000  0.12500000  0.62500000
  0.75000000  0.12500000  0.75000000
  0.75000000  0.12500000  0.87500000
  0.75000000  0.25000000  0.00000000
  0.75000000  0.25000000  0.12500000
  0.75000000  0.25000000  0.25000000
  0.75000000  0.25000000  0.37500000
  0.75000000  0.25000000  0.50000000
  0.75000000  0.25000000  0.62500000
  0.75000000  0.25000000  0.75000000
  0.75000000  0.25000000  0.87500000
  0.75000000  0.37500000  0.00000000
  0.75000000  0.37500000  0.12500000
  0.75000000  0.37500000  0.25000000
  0.75000000  0.37500000  0.37500000
  0.75000000  0.37500000  0.50000000
  0.75000000  0.37500000  0.62500000
  0.75000000  0.37500000  0.75000000
  0.75000000  0.37500000  0.87500000
  0.75000000  0.50000000  0.00000000
  0.75000000  0.50000000  0.12500000
  0.75000000  0.50000000  0.25000000
  0.75000000  0.50000000  0.37500000
  0.75000000  0.50000000  0.50000000
  0.75000000  0.50000000  0.62500000
  0.75000000  0.50000000  0.75000000
  0.75000000  0.50000000  0.87500000
  0.75000000  0.62500000  0.00000000
  0.75000000  0.62500000  0.12500000
  0.75000000  0.62500000  0.25000000
  0.75000000  0.62500000  0.37500000
  0.75000000  0.62500000  0.50000000
  0.75000000  0.62500000  0.62500000
  0.75000000  0.62500000  0.75000000
  0.75000000  0.62500000  0.87500000
  0.75000000  0.75000000  0.00000000
  0.75000000  0.75000000  0.12500000
  0.75000000  0.75000000  0.25000000
  0.75000000  0.75000000  0.37500000
  0.75000000  0.75000000  0.50000000
  0.75000000  0.75000000  0.62500000
  0.75000000  0.75000000  0.75000000
  0.75000000  0.75000000  0.87500000
  0.75000000  0.87500000  0.00000000
  0.75000000  0.87500000  0.12500000
  0.75000000  0.87500000  0.25000000
  0.75000000  0.87500000  0.37500000
  0.75000000  0.87500000  0.50000000
  0.75000000  0.87500000  0.62500000
  0.75000000  0.87500000  0.75000000
  0.75000000  0.87500000  0.87500000
  0.87500000  0.00000000  0.00000000
  0.87500000  0.00000000  0.12500000
  0.87500000  0.00000000  0.25000000
  0.87500000  0.00000000  0.37500000
  0.87500000  0.00000000  0.50000000
  0.87500000  0.00000000  0.62500000
  0.87500000  0.00000000  0.75000000
  0.87500000  0.00000000  0.87500000
  0.87500000  0.12500000  0.00000000
  0.87500000  0.12500000  0.12500000
  0.87500000  0.12500000  0.25000000
  0.87500000  0.12500000  0.37500000
  0.87500000  0.12500000  0.50000000
  0.87500000  0.12500000  0.62500000
  0.87500000  0.12500000  0.75000000
  0.87500000  0.12500000  0.87500000
  0.87500000  0.25000000  0.00000000
  0.87500000  0.25000000  0.12500000
  0.87500000  0.25000000  0.25000000
  0.87500000  0.25000000  0.37500000
  0.87500000  0.25000000  0.50000000
  0.87500000  0.25000000  0.62500000
  0.87500000  0.25000000  0.75000000
  0.87500000  0.25000000  0.87500000
  0.87500000  0.37500000  0.00000000
  0.87500000  0.37500000  0.12500000
  0.87500000  0.37500000  0.25000000
  0.87500000  0.37500000  0.37500000
  0.87500000  0.37500000  0.50000000
  0.87500000  0.37500000  0.62500000
  0.87500000  0.37500000  0.75000000
  0.87500000  0.37500000  0.87500000
  0.87500000  0.50000000  0.00000000
  0.87500000  0.50000000  0.12500000
  0.87500000  0.50000000  0.25000000
  0.87500000  0.50000000  0.37500000
  0.87500000  0.50000000  0.50000000
  0.87500000  0.50000000  0.62500000
  0.87500000  0.50000000  0.75000000
  0.87500000  0.50000000  0.87500000
  0.87500000  0.62500000  0.00000000
  0.87500000  0.62500000  0.12500000
  0.87500000  0.62500000  0.25000000
  0.87500000  0.62500000  0.37500000
  0.87500000  0.62500000  0.50000000
  0.87500000  0.62500000  0.62500000
  0.87500000  0.62500000  0.75000000
  0.87500000  0.62500000  0.87500000
  0.87500000  0.75000000  0.00000000
  0.87500000  0.75000000  0.12500000
  0.87500000  0.75000000  0.25000000
  0.87500000  0.75000000  0.37500000
  0.87500000  0.75000000  0.50000000
  0.87500000  0.75000000  0.62500000
  0.87500000  0.75000000  0.75000000
  0.87500000  0.75000000  0.87500000
  0.87500000  0.87500000  0.00000000
  0.87500000  0.87500000  0.12500000
  0.87500000  0.87500000  0.25000000
  0.87500000  0.87500000  0.37500000
  0.87500000  0.87500000  0.50000000
  0.87500000  0.87500000  0.62500000
  0.87500000  0.87500000  0.75000000
  0.87500000  0.87500000  0.87500000
end kpoints
